&CONTROL
calculation = 'scf'
restart_mode = 'from_scratch'
prefix = 'pwscf'
pseudo_dir = './'
outdir = './'
tprnfor = .TRUE.
verbosity = 'high'
forc_conv_thr = 0.000039
/
&SYSTEM
ibrav = 0
nat = 511
ntyp = 2
ecutwfc = 80
tot_charge = -1
nspin = 2
tot_magnetization = 2
nbnd = 1032
/
&ELECTRONS
electron_maxstep = 600
conv_thr = 1.0d-10
mixing_mode = 'plain'
mixing_beta = 0.7
diagonalization = 'david'
diago_full_acc = .TRUE.
startingpot = 'atomic'
startingwfc = 'atomic+random'
/
&IONS
ion_dynamics='bfgs'
ion_positions='default'
/
ATOMIC_SPECIES
C  12.011   C_ONCV_PBE-1.2.upf
N  14.0067  N_ONCV_PBE-1.2.upf
CELL_PARAMETERS angstrom
14.272  0.0000  0.0000
0.0000  14.272  0.0000
0.0000  0.0000  14.272
K_POINTS gamma
ATOMIC_POSITIONS crystal
C   -0.000015634140   -0.000010387420    0.000004139060
C   -0.000051901240   -0.000011856220    0.250014307820
C   -0.000081179560   -0.000029180180    0.500007627620
C    0.000017015260   -0.000010201320    0.749995399440
C   -0.000052536120    0.249999932180    0.000003552520
C   -0.000035567780    0.250003322520    0.250018361400
C   -0.000081082500    0.250041358000    0.500019439300
C   -0.000105230540    0.250002193620    0.749997863620
C   -0.000081240940    0.499992925780   -0.000011916600
C   -0.000081403680    0.500003676220    0.250058153980
C    0.000007726900    0.499992173960    0.500008934080
C    0.000034919880    0.499983848300    0.749963493300
C    0.000017347100    0.749980855640    0.000006496740
C   -0.000104721020    0.749981533060    0.250019059660
C    0.000034890540    0.749946856660    0.499999751780
C    0.000142030000    0.749974711940    0.749990844660
C    0.249975423680   -0.000049066040   -0.000030658560
C    0.249930665620    0.000016399220    0.249964164300
C    0.249995244760   -0.000092750820    0.499990311680
C    0.249996734180   -0.000162250840    0.749983235960
C    0.249929286360    0.249945520040    0.000035669200
C    0.250058801920    0.250107958780    0.250126507520
C    0.249541828080    0.249487668140    0.500174334200
C    0.249954375020    0.249893761560    0.750038933180
C    0.249995534560    0.499972922580   -0.000073470280
C    0.249541955160    0.500153766840    0.249507544940
C    0.250648871660    0.499863607580    0.499884897320
C    0.249781404080    0.499703731800    0.750251757400
C    0.249997960600    0.749964397180   -0.000139137480
C    0.249956682060    0.750016839460    0.249916995800
C    0.249781219080    0.750231005020    0.499724343000
C    0.250327800000    0.749683464720    0.749704847920
C    0.499974273840   -0.000032505920   -0.000014220480
C    0.499964084500   -0.000026803100    0.250015083040
C    0.499984705420   -0.000031314020    0.500009401460
C    0.500000414000   -0.000045475680    0.750005162720
C    0.499963576920    0.249998420400   -0.000009986940
C    0.499943597600    0.249668843180    0.249686709800
C    0.499852746680    0.250244212700    0.500013898980
C    0.499783238540    0.249428247940    0.750555839520
C    0.499985148080    0.499993131840   -0.000014305880
C    0.499853721640    0.499993185940    0.250264637760
C    0.500068012820    0.499954503420    0.749689289280
C    0.500001354900    0.749987436760   -0.000025599220
C    0.499784849540    0.750537477300    0.249447026640
C    0.500068764600    0.749670716980    0.499973437980
C    0.500191347780    0.750174495060    0.750192554400
C    0.749986799060    0.000024772240    0.000039123240
C    0.749961349060   -0.000041947840    0.250037928920
C    0.749972043620    0.000025372900    0.500028436220
C    0.750021523960    0.000086946360    0.750038977320
C    0.749961108960    0.250024040740   -0.000027507220
C    0.749925966000    0.250005485420    0.250020272460
C    0.750074411520    0.249830072940    0.499962449820
C    0.749773147700    0.250238464920    0.749851596080
C    0.749972103980    0.500014484520    0.000040384560
C    0.750073972200    0.499944521860    0.249848907020
C    0.749556377980    0.500080543480    0.500099663460
C    0.750223778500    0.500170727360    0.750292711180
C    0.750021800760    0.750024661200    0.000102123120
C    0.749771941140    0.749833899860    0.250256598820
C    0.750223216040    0.750275902320    0.500187379760
C    0.750166827840    0.750155234300    0.750170229920
C   -0.000035414000    0.124999077320    0.125013435180
C   -0.000051195260    0.124999244700    0.375008777200
C   -0.000107623400    0.125016427860    0.625017151580
C   -0.000043993120    0.124999393640    0.874995067540
C   -0.000051686200    0.374994247660    0.125015144720
C   -0.000055911560    0.375029664760    0.375045992140
C   -0.000036744540    0.375014567440    0.624986055540
C   -0.000079763880    0.374989523500    0.874989393100
C   -0.000107294660    0.625001678740    0.125034124000
C   -0.000036960120    0.624969644960    0.375031318580
C    0.000095600220    0.624956930920    0.624973662620
C    0.000078705440    0.624990114220    0.874983799860
C   -0.000043365500    0.874980055040    0.125014928920
C   -0.000079050980    0.874972767640    0.375004916060
C    0.000078487320    0.874966767440    0.625005045440
C    0.000063379000    0.874979173080    0.874994343140
C    0.249958590680    0.125012189000    0.125029830840
C    0.249979030380    0.124965458060    0.375028492980
C    0.249873603480    0.124798147320    0.625052791860
C    0.249954097080    0.124908664300    0.875015132120
C    0.249979337420    0.375010772780    0.124983379920
C    0.250406338740    0.375265594580    0.375285716340
C    0.249975074160    0.374815623040    0.625039215760
C    0.249895701980    0.374895832200    0.875092044880
C    0.249875585220    0.625032078000    0.124821314800
C    0.249976260900    0.625016712580    0.374838376940
C    0.250706535420    0.624461014900    0.624481663060
C    0.250243947580    0.624893848980    0.874739677180
C    0.249956063720    0.874995486480    0.124930100020
C    0.249897469400    0.875070664620    0.374916603200
C    0.250244070640    0.874717724120    0.624912987540
C    0.250049823320    0.874863193040    0.874883289600
C    0.499974306640    0.124877235920    0.124893483900
C    0.499947953460    0.125008491100    0.375026913460
C    0.499924310880    0.124988651760    0.625002096340
C    0.499925194460    0.124776681020    0.875203930520
C    0.499948232000    0.375010053080    0.125025499640
C    0.500039598820    0.375324439120    0.375345100540
C    0.498762645680    0.375103481580    0.624678104620
C    0.499968259040    0.375036970560    0.874920214960
C    0.499926426380    0.624982472680    0.125009093320
C    0.498763696160    0.624659410620    0.375122498740
C    0.502298125380    0.624410742340    0.624429241740
C    0.500076496500    0.624961213920    0.874953962560
C    0.499926307040    0.875184984120    0.124796470520
C    0.499969201800    0.874902673700    0.375054934140
C    0.500076298500    0.874935937660    0.624978219760
C    0.500049607460    0.875032878260    0.875050774360
C    0.749965397660    0.124999788240    0.125013588660
C    0.749979773680    0.124960491560    0.375008909280
C    0.749882253600    0.125089227980    0.624988667920
C    0.749945253740    0.125096249980    0.874962589760
C    0.749979404340    0.374994493880    0.124975762180
C    0.749920355220    0.374981709060    0.374999221900
C    0.749193413880    0.375651927900    0.624877638120
C    0.749903069240    0.375066611840    0.874942173720
C    0.749882246700    0.624972949580    0.125105863180
C    0.749194060040    0.624859082020    0.375670704060
C    0.750356069020    0.625280495840    0.625298041800
C    0.750127030580    0.625092021380    0.875179548760
C    0.749945202520    0.874947455260    0.125111578260
C    0.749902755440    0.874926712480    0.375081720460
C    0.750126541000    0.875164245540    0.625106219000
C    0.750059243900    0.875072366620    0.875086661860
C    0.124961400400   -0.000007833000    0.124991315200
C    0.124923236120   -0.000009906120    0.374986377100
C    0.125002075960   -0.000124759040    0.625000510120
C    0.125002535140   -0.000066384080    0.874975114800
C    0.124974609940    0.250008114600    0.125044992600
C    0.124992448560    0.250053208500    0.375043844120
C    0.124875470700    0.249884013180    0.625036907780
C    0.124935451640    0.249955514440    0.875007927360
C    0.124779065320    0.500031675380    0.124813256740
C    0.125095159500    0.500003564820    0.375021720160
C    0.125184427500    0.499889761780    0.624892394880
C    0.124887510000    0.499914069400    0.875080026760
C    0.124952984420    0.749988050980    0.124953953880
C    0.124922625840    0.750027533620    0.374940326820
C    0.125195081680    0.749795922640    0.624886103340
C    0.125128628040    0.749903554040    0.874873009120
C    0.374948159940    0.000010082140    0.124949314700
C    0.374976609780   -0.000043105240    0.374998889080
C    0.375004569080   -0.000102347640    0.624988918340
C    0.374981205220   -0.000124472600    0.874990886300
C    0.374953611520    0.250018238420    0.125002370260
C    0.375115508560    0.250186037340    0.375255040280
C    0.374881562620    0.249704663240    0.625169539300
C    0.374922905520    0.249825218540    0.875148064220
C    0.374963246780    0.500016165200    0.124986622460
C    0.375648962820    0.500868429220    0.375299117940
C    0.376111248620    0.498648473700    0.624023892600
C    0.375101205800    0.499920076180    0.874855826860
C    0.374933337460    0.750105752020    0.124809878440
C    0.374931759380    0.750179394740    0.374759559320
C    0.375729423160    0.749195364660    0.624679875060
C    0.375089714460    0.749849483000    0.874835396460
C    0.624985261260   -0.000035801140    0.125039929300
C    0.624963278980   -0.000017283480    0.375031711520
C    0.624994588640    0.000028436180    0.625017837860
C    0.625012207940    0.000035177200    0.875036069880
C    0.624959026480    0.249950493360    0.124945097380
C    0.624894310860    0.249908685340    0.374969688880
C    0.624585093600    0.250313798300    0.624773598020
C    0.624950364920    0.250175887860    0.874877692200
C    0.624906718000    0.499983577920    0.125065417200
C    0.623915474920    0.499493837780    0.375645962960
C    0.624437876440    0.502301351780    0.624640825660
C    0.624998674640    0.500046629940    0.875002592320
C    0.624936924060    0.749943872120    0.125053928660
C    0.624755628620    0.749377349400    0.375617846620
C    0.625266971800    0.750400000220    0.625266452620
C    0.625099668860    0.750112315680    0.875162203640
C    0.874963323800   -0.000014309460    0.125032126820
C    0.874948819220   -0.000025119600    0.375021952220
C    0.875004064080    0.000054660260    0.625026622760
C    0.875004025000    0.000045185020    0.875018405340
C    0.874952761160    0.250004731680    0.125009163460
C    0.874971088320    0.249981441640    0.375011222040
C    0.874743734880    0.250234496700    0.624995476180
C    0.874908219280    0.250047411120    0.874957768640
C    0.875000562040    0.499981173660    0.124982893600
C    0.874795005620    0.500006332780    0.375135328640
C    0.874939592340    0.500063257380    0.625011765500
C    0.875062250360    0.500047766120    0.875078362220
C    0.874911553620    0.749964308480    0.125113567160
C    0.874864999700    0.749908394180    0.375088888680
C    0.875175330840    0.750107556500    0.625097436200
C    0.875093627120    0.750039917220    0.875076498680
C    0.124960605020    0.124975071940    0.000008509660
C    0.124974953740    0.125028106460    0.250023978580
C    0.124778153900    0.124793611680    0.500049519720
C    0.124951358540    0.124934150140    0.750005436300
C    0.124922255040    0.374969883600    0.000008261080
C    0.124992396480    0.375026528660    0.250070970500
C    0.125095302460    0.375003038120    0.500022278760
C    0.124921056880    0.374920917200    0.750047223400
C    0.125002854680    0.624983763540   -0.000104208640
C    0.124877036380    0.625017937100    0.249904263580
C    0.125184259600    0.624872819100    0.499909182880
C    0.125195054840    0.624867105000    0.749816136240
C    0.125003214220    0.874958854620   -0.000048568940
C    0.124937246960    0.874989888660    0.249973575360
C    0.124888606060    0.875060127040    0.499932151720
C    0.125128473980    0.874853146160    0.749921006860
C    0.374947307820    0.124929564040    0.000029517440
C    0.374953733260    0.124985057780    0.250035319420
C    0.374961922940    0.124967105480    0.500035575100
C    0.374931456000    0.124786351120    0.750127313620
C    0.374976310980    0.374981567960   -0.000025307220
C    0.375115818740    0.375234441620    0.250206490060
C    0.375648198900    0.375279051320    0.500888540480
C    0.374930504300    0.374738915480    0.750199334680
C    0.375005674960    0.624970714780   -0.000081353260
C    0.374883190280    0.625148471300    0.249725930220
C    0.376111794160    0.624004618320    0.498668147920
C    0.375729484460    0.624660041880    0.749215401640
C    0.374982037660    0.874971133640   -0.000102371800
C    0.374924559840    0.875126886180    0.249846936320
C    0.375101439640    0.874836840300    0.499938867020
C    0.375089488460    0.874813919260    0.749868755500
C    0.624985103880    0.125024763060   -0.000020590480
C    0.624959247100    0.124929875900    0.249965403620
C    0.624906125320    0.125048645420    0.500000066040
C    0.624935851460    0.125035704880    0.749961420660
C    0.624963104500    0.375016779280   -0.000001981640
C    0.624894527680    0.374952106700    0.249926436120
C    0.623914113960    0.375626843660    0.499513288500
C    0.624754765200    0.375600025840    0.749394813220
C    0.624995170820    0.625002630400    0.000044692540
C    0.624585798680    0.624753435460    0.250334135660
C    0.624438616060    0.624623079340    0.502319151820
C    0.625267267720    0.625248966300    0.750418189600
C    0.625012385580    0.875020097200    0.000051665640
C    0.624950812700    0.874861650260    0.250192439960
C    0.624998609900    0.874986558200    0.500062396460
C    0.625099502800    0.875146305680    0.750127450760
C    0.874963175060    0.125018291080   -0.000000235520
C    0.874953011480    0.124995030540    0.250018308860
C    0.875001295500    0.124966686340    0.499995641100
C    0.874911895580    0.125097286500    0.749979423340
C    0.874948493420    0.375008426740   -0.000010145260
C    0.874970893820    0.374996058980    0.249997143080
C    0.874795281940    0.375117209900    0.500023789420
C    0.874865998380    0.375072302860    0.749924926340
C    0.875004287720    0.625012841380    0.000070207800
C    0.874742469360    0.624978435640    0.250252751860
C    0.874939289720    0.624995077240    0.500080164040
C    0.875175592900    0.625082567480    0.750122932180
C    0.875004124220    0.875004390660    0.000059690940
C    0.874908037280    0.874942318980    0.250062319700
C    0.875061914280    0.875063044180    0.500061806360
C    0.875093431740    0.875061835080    0.750053791940
C    0.187452250060    0.062517989980    0.187503478100
C    0.187424422520    0.062422294160    0.437503870400
C    0.187455453960    0.062349712440    0.687508310780
C    0.187471657620    0.062444818380    0.937494039800
C    0.187496541500    0.312523622140    0.187554616140
C    0.187563947360    0.312483586120    0.437549118380
C    0.187415388520    0.312416020060    0.687521631540
C    0.187418326780    0.312447591180    0.937550051820
C    0.187153245520    0.562463870540    0.187148962800
C    0.187719146180    0.562410376480    0.437455151940
C    0.187776015420    0.562317644860    0.687329840560
C    0.187557572840    0.562440819680    0.937377425460
C    0.187454528260    0.812492943940    0.187451170220
C    0.187276190520    0.812704683680    0.437484824720
C    0.187714608500    0.812263269320    0.687362346860
C    0.187536529440    0.812426526540    0.937392860000
C    0.437450907760    0.062467088600    0.187482485620
C    0.437449577800    0.062467428100    0.437508712020
C    0.437473283240    0.062417134480    0.687520972720
C    0.437489850240    0.062356489960    0.937581075880
C    0.437409670560    0.312507379380    0.187503320040
C    0.437530187080    0.312800302460    0.437820126840
C    0.437694747820    0.311471782560    0.688522418380
C    0.437465056920    0.312465588760    0.937488961420
C    0.437429742620    0.562506853720    0.187483406060
C    0.438513793780    0.561669305920    0.686373262900
C    0.437514512220    0.562468428880    0.937438985840
C    0.437505315920    0.812876887220    0.187100630320
C    0.437510609540    0.812396735960    0.437443059760
C    0.437681651420    0.812278712620    0.687378966740
C    0.437528960680    0.812442272760    0.937422941080
C    0.687470522980    0.062460403180    0.187516401260
C    0.687448931460    0.062510951380    0.437532955640
C    0.687480961400    0.062544032180    0.687528070800
C    0.687480852180    0.062552250440    0.937501934120
C    0.687442480480    0.312495449680    0.187448550520
C    0.687874956780    0.312014238460    0.437662215180
C    0.687104346060    0.312834040080    0.687269531180
C    0.687454703760    0.312543781220    0.937468387380
C    0.687352319000    0.562505967140    0.187606179960
C    0.686311318180    0.561957074200    0.438517104000
C    0.688115657300    0.562811978340    0.688206157880
C    0.687518542400    0.562531403680    0.937557969480
C    0.687399932040    0.812396178980    0.187649777520
C    0.687434409560    0.812400406960    0.437640227700
C    0.687691611240    0.812768555220    0.687693768060
C    0.687557965060    0.812571818940    0.937617401700
C    0.937457274160    0.062494199500    0.187520559980
C    0.937466915660    0.062472323240    0.437527958180
C    0.937454555200    0.062545707280    0.687504532220
C    0.937480707260    0.062515525420    0.937509720620
C    0.937464401520    0.312498033080    0.187511733660
C    0.937394708000    0.312544817840    0.437532222840
C    0.937391042600    0.312565949760    0.687477489620
C    0.937427582480    0.312515734720    0.937482036720
C    0.937360439440    0.562480696840    0.187613045960
C    0.937435017100    0.562495316960    0.437547955880
C    0.937553711500    0.562521691480    0.687511978000
C    0.937523509380    0.562505849780    0.937530288140
C    0.937421020300    0.812471001760    0.187550185420
C    0.937458564900    0.812453909260    0.437547129360
C    0.937639065700    0.812541320380    0.687549700140
C    0.937549804380    0.812509280520    0.937542100460
C    0.062466476240    0.062490388520    0.062505655500
C    0.062453293160    0.062510478960    0.312511356820
C    0.062366027560    0.062383077200    0.562491050540
C    0.062483316400    0.062468708000    0.812496211020
C    0.062452579920    0.312496202260    0.062527193360
C    0.062452804300    0.312502981120    0.312519519600
C    0.062480629120    0.312497050380    0.562495631380
C    0.062410380280    0.312477763900    0.812502754340
C    0.062366828120    0.562474603740    0.062402379080
C    0.062480641900    0.562478481640    0.312514852180
C    0.062611848120    0.562446176120    0.562464377380
C    0.062567504280    0.562459721240    0.812447196620
C    0.062484434220    0.812480491920    0.062486126380
C    0.062411868420    0.812485014200    0.312495189380
C    0.062567768760    0.812428889400    0.562476673300
C    0.062617305420    0.812434971400    0.812452205600
C    0.312457442240    0.062486069480    0.062504922860
C    0.312437772180    0.062463075920    0.312491259180
C    0.312462495360    0.062403356240    0.562504733600
C    0.312465453340    0.062334633920    0.812525402360
C    0.312437442120    0.312473963340    0.062480745800
C    0.312615509500    0.312662639020    0.312683222480
C    0.311818130260    0.311633860320    0.562341356600
C    0.312436279500    0.312365476920    0.812672909800
C    0.312463834900    0.562485931420    0.062424092420
C    0.311818688960    0.562320327120    0.311654212060
C    0.313576648260    0.561850119640    0.561870000540
C    0.312798354880    0.562279671500    0.812144968920
C    0.312467489620    0.812504635120    0.062358409480
C    0.312438188180    0.812651143240    0.312387736420
C    0.312798586120    0.812124046460    0.562299629640
C    0.312611340880    0.812303397640    0.812324270620
C    0.562465891720    0.062440268340    0.062456050120
C    0.562446008300    0.062481014940    0.312518399000
C    0.562463010800    0.062503010400    0.562524829380
C    0.562483120780    0.062465249660    0.812543224200
C    0.562445852660    0.312502850920    0.062496753680
C    0.562230486600    0.311875243880    0.311893892700
C    0.561931254000    0.312891070300    0.562408665320
C    0.562350229000    0.312650734740    0.812313173920
C    0.562464054820    0.562508263000    0.062520201200
C    0.561932179300    0.562388164960    0.312911379440
C    0.562564099380    0.562506841680    0.812524060720
C    0.562484249660    0.812525378180    0.062484285460
C    0.562351376160    0.812295812840    0.312668452720
C    0.562564395340    0.812506687820    0.562524096400
C    0.562603335180    0.812654240840    0.812670519260
C    0.812472577720    0.062510499700    0.062524309760
C    0.812459377320    0.062468297040    0.312524078660
C    0.812461574360    0.062543164360    0.562523832600
C    0.812474062820    0.062587984600    0.812505441700
C    0.812459042240    0.312510556660    0.062482776000
C    0.812479796060    0.312500891080    0.312516558220
C    0.812096438980    0.312814961980    0.562442052460
C    0.812369697280    0.312583866900    0.812424011360
C    0.812461531320    0.562509667080    0.062558724040
C    0.812095898260    0.562423688800    0.312834105020
C    0.812449479500    0.562572771780    0.562590153760
C    0.812693009040    0.562592917900    0.812709771140
C    0.812474147240    0.812491038300    0.062603096300
C    0.812368919820    0.812407755940    0.312599872260
C    0.812692648660    0.812694362300    0.562607471480
C    0.812621079460    0.812600182400    0.812614380980
C    0.062468290660    0.187507731260    0.187523184160
C    0.062423583460    0.187485001700    0.437516823040
C    0.062397146480    0.187468287680    0.687510058960
C    0.062450812040    0.187485427960    0.937504855280
C    0.062423449240    0.437500554840    0.187502303320
C    0.062530460420    0.437492004800    0.437509515940
C    0.062543094060    0.437478158720    0.687461764700
C    0.062386369600    0.437497681600    0.937540265980
C    0.062398479240    0.687493026220    0.187487053580
C    0.062543255940    0.687443943840    0.437495817780
C    0.062638842120    0.687428737700    0.687446905780
C    0.062561513340    0.687466084280    0.937435472940
C    0.062452095880    0.937488657240    0.187501384240
C    0.062387468260    0.937522044900    0.437513995520
C    0.062561197780    0.937416568300    0.687481966500
C    0.062512264360    0.937471650420    0.937487461740
C    0.312464423360    0.187533786240    0.187551210340
C    0.312402986160    0.187438309540    0.437554848400
C    0.312430780420    0.187253665960    0.687578377880
C    0.312435186720    0.187405121860    0.937575412680
C    0.312403907580    0.437534734980    0.187457735200
C    0.313313374860    0.437782691600    0.437802859340
C    0.312029401180    0.437525112360    0.688141941940
C    0.312489955780    0.437458867320    0.937443541360
C    0.312432942340    0.687556208460    0.187277390260
C    0.312029824280    0.688121959260    0.437545750240
C    0.312986663800    0.687041492300    0.687062250180
C    0.312556408500    0.687426841740    0.937357830360
C    0.312437263260    0.937554670320    0.187426503980
C    0.312490619860    0.937424698060    0.437477055280
C    0.312555964380    0.937335525980    0.687445351780
C    0.312496286880    0.937407442400    0.937427724340
C    0.562416642440    0.187285326980    0.187301328080
C    0.562368311780    0.187535334000    0.437558642660
C    0.562373618300    0.187485794940    0.687563354280
C    0.562453693640    0.187521552060    0.937476356020
C    0.562369095300    0.437540658120    0.187553007340
C    0.561778224760    0.438241977660    0.686559004840
C    0.562484246120    0.437499668660    0.937483485640
C    0.562375848220    0.687543222800    0.187506397820
C    0.561779535500    0.686541418680    0.438260230220
C    0.562847920620    0.688072335940    0.688091016820
C    0.562533058060    0.687510027120    0.937523967920
C    0.562454503420    0.937459885240    0.187538383140
C    0.562484524520    0.937467388020    0.437515582340
C    0.562532681060    0.937506833380    0.687525795060
C    0.562509861780    0.937520282480    0.937537118340
C    0.812448405760    0.187505637080    0.187519482300
C    0.812578243980    0.187380858140    0.437545356040
C    0.812330908700    0.187659196200    0.687458535220
C    0.812447832600    0.187542530860    0.937476086800
C    0.812577485960    0.437529820640    0.187397740100
C    0.812264887580    0.437554606340    0.437572858660
C    0.812309171440    0.437673920420    0.687476605400
C    0.812461036180    0.437535004520    0.937498390240
C    0.812330019380    0.687442237680    0.187676655700
C    0.812308419140    0.687459264320    0.437691628920
C    0.812775800900    0.687681212120    0.687696755000
C    0.812575022820    0.687553886060    0.937624194700
C    0.812447977220    0.937461488860    0.187556762180
C    0.812460974880    0.937483471800    0.437548806080
C    0.812574663980    0.937609256480    0.687567625600
C    0.812519230200    0.937544031980    0.937558094080
C    0.187451418940    0.187486412520    0.062535817440
C    0.187496360840    0.187536773740    0.312540804360
C    0.187152455520    0.187127862820    0.562484118160
C    0.187452178800    0.187429977760    0.812512692380
C    0.187424699940    0.437486790860    0.062440690780
C    0.187563860840    0.437529332760    0.312503066320
C    0.187719278020    0.437433965380    0.562431578600
C    0.187275281960    0.437464374500    0.812725577920
C    0.187457336780    0.687489408300    0.062372359980
C    0.187417423580    0.687500022620    0.312438265260
C    0.187775902300    0.687308773260    0.562338301280
C    0.187714444020    0.687342708480    0.812284782940
C    0.187472940360    0.937476228740    0.062463480460
C    0.187420365680    0.937530217660    0.312466573840
C    0.187557863800    0.937357152840    0.562458381920
C    0.187535882120    0.937372093520    0.812444744400
C    0.437450504720    0.187465484020    0.062484127180
C    0.437409334220    0.187485520080    0.312525283820
C    0.437427794580    0.187462418580    0.562527948540
C    0.437503628620    0.187080690960    0.812895945740
C    0.437450141960    0.437491630780    0.062484788460
C    0.437530686560    0.437799062120    0.312821283180
C    0.437509467840    0.437423233220    0.812415679000
C    0.437475230400    0.687501498820    0.062438945920
C    0.437696229060    0.688503324460    0.311491328720
C    0.438514180200    0.686354375940    0.561688445220
C    0.437681572000    0.687360351460    0.812298556540
C    0.437491050960    0.937561241400    0.062377521780
C    0.437466183560    0.937470681760    0.312484017120
C    0.437514341220    0.937420626080    0.562485520700
C    0.437528371280    0.937402444720    0.812460546540
C    0.687470334440    0.187502258100    0.062474805480
C    0.687442631740    0.187433085920    0.312510675940
C    0.687351681040    0.187588405940    0.562523475260
C    0.687399836100    0.187632831700    0.812412649720
C    0.687449031260    0.437518307940    0.062526171820
C    0.687875525300    0.437643872700    0.312032115940
C    0.686310405080    0.438498507660    0.561975667940
C    0.687434518240    0.437623988700    0.812416698180
C    0.687481594120    0.687512676880    0.062560334780
C    0.687104498900    0.687250276860    0.312853550260
C    0.688115724800    0.688188220180    0.562830091320
C    0.687691891800    0.687678565820    0.812784673080
C    0.687480974940    0.937487035600    0.062567294460
C    0.687454986000    0.937453365960    0.312558570400
C    0.687518323080    0.937542683500    0.562545838060
C    0.687557813940    0.937602224640    0.812586408840
C    0.937456937920    0.187506744100    0.062508540080
C    0.937464655440    0.187496741360    0.312512375680
C    0.937361229960    0.187595922340    0.562496040460
C    0.937420653900    0.187534588200    0.812486237580
C    0.937466372160    0.437513962760    0.062488246420
C    0.937394515500    0.437516340720    0.312561323120
C    0.937435170460    0.437531200620    0.562511698820
C    0.937458801580    0.437531970300    0.812469958180
C    0.937454808300    0.687490054780    0.062562107860
C    0.937390347840    0.687461322520    0.312582713460
C    0.937553674800    0.687495921280    0.562537531740
C    0.937639209500    0.687534943520    0.812556959740
C    0.937481050900    0.937495533960    0.062529875420
C    0.937428118780    0.937466547680    0.312530024840
C    0.937523268300    0.937514146860    0.562519955840
C    0.937549590860    0.937527050640    0.812523441140
C    0.567099928120    0.432082960120    0.432101608640
C    0.432885395960    0.431450805220    0.567766153240
C    0.432886064520    0.567747658060    0.431469581720
N    0.567137281080    0.567016092120    0.567033733840
