&CONTROL
calculation = 'scf'
restart_mode = 'from_scratch'
prefix = 'pwscf'
pseudo_dir = './'
outdir = './'
tprnfor = .TRUE.
verbosity = 'high'
forc_conv_thr = 0.000039
/
&SYSTEM
ibrav = 0
nat = 511
ntyp = 2
ecutwfc = 80
tot_charge = -1
nspin = 2
tot_magnetization = 2
occupations = 'from_input'
nbnd = 1032
/
&ELECTRONS
electron_maxstep = 100
conv_thr = 1.0d-10
mixing_mode = 'plain'
mixing_beta = 0.7
diagonalization = 'david'
diago_full_acc = .TRUE.
startingpot = 'atomic'
startingwfc = 'atomic+random'
/
&IONS
ion_dynamics='bfgs'
ion_positions='default'
/
ATOMIC_SPECIES
C  12.011   C_ONCV_PBE-1.2.upf
N  14.0067  N_ONCV_PBE-1.2.upf
CELL_PARAMETERS angstrom
14.272  0.0000  0.0000
0.0000  14.272  0.0000
0.0000  0.0000  14.272
K_POINTS gamma
OCCUPATIONS
1 1 1 1 1 1 1 1 1 1
1 1 1 1 1 1 1 1 1 1
1 1 1 1 1 1 1 1 1 1
1 1 1 1 1 1 1 1 1 1
1 1 1 1 1 1 1 1 1 1
1 1 1 1 1 1 1 1 1 1
1 1 1 1 1 1 1 1 1 1
1 1 1 1 1 1 1 1 1 1
1 1 1 1 1 1 1 1 1 1
1 1 1 1 1 1 1 1 1 1
1 1 1 1 1 1 1 1 1 1
1 1 1 1 1 1 1 1 1 1
1 1 1 1 1 1 1 1 1 1
1 1 1 1 1 1 1 1 1 1
1 1 1 1 1 1 1 1 1 1
1 1 1 1 1 1 1 1 1 1
1 1 1 1 1 1 1 1 1 1
1 1 1 1 1 1 1 1 1 1
1 1 1 1 1 1 1 1 1 1
1 1 1 1 1 1 1 1 1 1
1 1 1 1 1 1 1 1 1 1
1 1 1 1 1 1 1 1 1 1
1 1 1 1 1 1 1 1 1 1
1 1 1 1 1 1 1 1 1 1
1 1 1 1 1 1 1 1 1 1
1 1 1 1 1 1 1 1 1 1
1 1 1 1 1 1 1 1 1 1
1 1 1 1 1 1 1 1 1 1
1 1 1 1 1 1 1 1 1 1
1 1 1 1 1 1 1 1 1 1
1 1 1 1 1 1 1 1 1 1
1 1 1 1 1 1 1 1 1 1
1 1 1 1 1 1 1 1 1 1
1 1 1 1 1 1 1 1 1 1
1 1 1 1 1 1 1 1 1 1
1 1 1 1 1 1 1 1 1 1
1 1 1 1 1 1 1 1 1 1
1 1 1 1 1 1 1 1 1 1
1 1 1 1 1 1 1 1 1 1
1 1 1 1 1 1 1 1 1 1
1 1 1 1 1 1 1 1 1 1
1 1 1 1 1 1 1 1 1 1
1 1 1 1 1 1 1 1 1 1
1 1 1 1 1 1 1 1 1 1
1 1 1 1 1 1 1 1 1 1
1 1 1 1 1 1 1 1 1 1
1 1 1 1 1 1 1 1 1 1
1 1 1 1 1 1 1 1 1 1
1 1 1 1 1 1 1 1 1 1
1 1 1 1 1 1 1 1 1 1
1 1 1 1 1 1 1 1 1 1
1 1 1 1 1 1 1 1 1 1
1 1 1 1 1 1 1 1 1 1
1 1 1 1 1 1 1 1 1 1
1 1 1 1 1 1 1 1 1 1
1 1 1 1 1 1 1 1 1 1
1 1 1 1 1 1 1 1 1 1
1 1 1 1 1 1 1 1 1 1
1 1 1 1 1 1 1 1 1 1
1 1 1 1 1 1 1 1 1 1
1 1 1 1 1 1 1 1 1 1
1 1 1 1 1 1 1 1 1 1
1 1 1 1 1 1 1 1 1 1
1 1 1 1 1 1 1 1 1 1
1 1 1 1 1 1 1 1 1 1
1 1 1 1 1 1 1 1 1 1
1 1 1 1 1 1 1 1 1 1
1 1 1 1 1 1 1 1 1 1
1 1 1 1 1 1 1 1 1 1
1 1 1 1 1 1 1 1 1 1
1 1 1 1 1 1 1 1 1 1
1 1 1 1 1 1 1 1 1 1
1 1 1 1 1 1 1 1 1 1
1 1 1 1 1 1 1 1 1 1
1 1 1 1 1 1 1 1 1 1
1 1 1 1 1 1 1 1 1 1
1 1 1 1 1 1 1 1 1 1
1 1 1 1 1 1 1 1 1 1
1 1 1 1 1 1 1 1 1 1
1 1 1 1 1 1 1 1 1 1
1 1 1 1 1 1 1 1 1 1
1 1 1 1 1 1 1 1 1 1
1 1 1 1 1 1 1 1 1 1
1 1 1 1 1 1 1 1 1 1
1 1 1 1 1 1 1 1 1 1
1 1 1 1 1 1 1 1 1 1
1 1 1 1 1 1 1 1 1 1
1 1 1 1 1 1 1 1 1 1
1 1 1 1 1 1 1 1 1 1
1 1 1 1 1 1 1 1 1 1
1 1 1 1 1 1 1 1 1 1
1 1 1 1 1 1 1 1 1 1
1 1 1 1 1 1 1 1 1 1
1 1 1 1 1 1 1 1 1 1
1 1 1 1 1 1 1 1 1 1
1 1 1 1 1 1 1 1 1 1
1 1 1 1 1 1 1 1 1 1
1 1 1 1 1 1 1 1 1 1
1 1 1 1 1 1 1 1 1 1
1 1 1 1 1 1 1 1 1 1
1 1 1 1 1 1 1 1 1 1
1 1 1 1 1 1 1 1 1 1
1 1 1 1 0 0 0 0 0 0
0 0
1 1 1 1 1 1 1 1 1 1
1 1 1 1 1 1 1 1 1 1
1 1 1 1 1 1 1 1 1 1
1 1 1 1 1 1 1 1 1 1
1 1 1 1 1 1 1 1 1 1
1 1 1 1 1 1 1 1 1 1
1 1 1 1 1 1 1 1 1 1
1 1 1 1 1 1 1 1 1 1
1 1 1 1 1 1 1 1 1 1
1 1 1 1 1 1 1 1 1 1
1 1 1 1 1 1 1 1 1 1
1 1 1 1 1 1 1 1 1 1
1 1 1 1 1 1 1 1 1 1
1 1 1 1 1 1 1 1 1 1
1 1 1 1 1 1 1 1 1 1
1 1 1 1 1 1 1 1 1 1
1 1 1 1 1 1 1 1 1 1
1 1 1 1 1 1 1 1 1 1
1 1 1 1 1 1 1 1 1 1
1 1 1 1 1 1 1 1 1 1
1 1 1 1 1 1 1 1 1 1
1 1 1 1 1 1 1 1 1 1
1 1 1 1 1 1 1 1 1 1
1 1 1 1 1 1 1 1 1 1
1 1 1 1 1 1 1 1 1 1
1 1 1 1 1 1 1 1 1 1
1 1 1 1 1 1 1 1 1 1
1 1 1 1 1 1 1 1 1 1
1 1 1 1 1 1 1 1 1 1
1 1 1 1 1 1 1 1 1 1
1 1 1 1 1 1 1 1 1 1
1 1 1 1 1 1 1 1 1 1
1 1 1 1 1 1 1 1 1 1
1 1 1 1 1 1 1 1 1 1
1 1 1 1 1 1 1 1 1 1
1 1 1 1 1 1 1 1 1 1
1 1 1 1 1 1 1 1 1 1
1 1 1 1 1 1 1 1 1 1
1 1 1 1 1 1 1 1 1 1
1 1 1 1 1 1 1 1 1 1
1 1 1 1 1 1 1 1 1 1
1 1 1 1 1 1 1 1 1 1
1 1 1 1 1 1 1 1 1 1
1 1 1 1 1 1 1 1 1 1
1 1 1 1 1 1 1 1 1 1
1 1 1 1 1 1 1 1 1 1
1 1 1 1 1 1 1 1 1 1
1 1 1 1 1 1 1 1 1 1
1 1 1 1 1 1 1 1 1 1
1 1 1 1 1 1 1 1 1 1
1 1 1 1 1 1 1 1 1 1
1 1 1 1 1 1 1 1 1 1
1 1 1 1 1 1 1 1 1 1
1 1 1 1 1 1 1 1 1 1
1 1 1 1 1 1 1 1 1 1
1 1 1 1 1 1 1 1 1 1
1 1 1 1 1 1 1 1 1 1
1 1 1 1 1 1 1 1 1 1
1 1 1 1 1 1 1 1 1 1
1 1 1 1 1 1 1 1 1 1
1 1 1 1 1 1 1 1 1 1
1 1 1 1 1 1 1 1 1 1
1 1 1 1 1 1 1 1 1 1
1 1 1 1 1 1 1 1 1 1
1 1 1 1 1 1 1 1 1 1
1 1 1 1 1 1 1 1 1 1
1 1 1 1 1 1 1 1 1 1
1 1 1 1 1 1 1 1 1 1
1 1 1 1 1 1 1 1 1 1
1 1 1 1 1 1 1 1 1 1
1 1 1 1 1 1 1 1 1 1
1 1 1 1 1 1 1 1 1 1
1 1 1 1 1 1 1 1 1 1
1 1 1 1 1 1 1 1 1 1
1 1 1 1 1 1 1 1 1 1
1 1 1 1 1 1 1 1 1 1
1 1 1 1 1 1 1 1 1 1
1 1 1 1 1 1 1 1 1 1
1 1 1 1 1 1 1 1 1 1
1 1 1 1 1 1 1 1 1 1
1 1 1 1 1 1 1 1 1 1
1 1 1 1 1 1 1 1 1 1
1 1 1 1 1 1 1 1 1 1
1 1 1 1 1 1 1 1 1 1
1 1 1 1 1 1 1 1 1 1
1 1 1 1 1 1 1 1 1 1
1 1 1 1 1 1 1 1 1 1
1 1 1 1 1 1 1 1 1 1
1 1 1 1 1 1 1 1 1 1
1 1 1 1 1 1 1 1 1 1
1 1 1 1 1 1 1 1 1 1
1 1 1 1 1 1 1 1 1 1
1 1 1 1 1 1 1 1 1 1
1 1 1 1 1 1 1 1 1 1
1 1 1 1 1 1 1 1 1 1
1 1 1 1 1 1 1 1 1 1
1 1 1 1 1 1 1 1 1 1
1 1 1 1 1 1 1 1 1 1
1 1 1 1 1 1 1 1 1 1
1 1 1 1 1 1 1 1 1 1
1 1 1 1 1 1 1 1 1 1
1 1 1 1 1 1 1 1 1 1
1 0 1 0 0 0 0 0 0 0
0 0
ATOMIC_POSITIONS crystal
C   -0.000002884170   -0.000000259810    0.000007007930
C   -0.000052781320   -0.000032749810    0.250015097360
C   -0.000041673730   -0.000015667040    0.500007412610
C    0.000046155430    0.000032554140    0.749996389920
C   -0.000053098260    0.250007902040   -0.000025048940
C   -0.000071285090    0.249981570060    0.249989094000
C   -0.000109599150    0.250042084900    0.499992797200
C   -0.000091872470    0.250035806310    0.749969187910
C   -0.000041704420    0.500000053690   -0.000007037250
C   -0.000109764240    0.499984909660    0.250050485890
C   -0.000015894200    0.499997784530    0.500006167090
C    0.000058127490    0.500013167300    0.749972433750
C    0.000046323350    0.749989119020    0.000040904670
C   -0.000091620710    0.749961028630    0.250044242830
C    0.000058106820    0.749964117430    0.500021125040
C    0.000195639400    0.750022070120    0.750030138480
C    0.249995650790   -0.000051356720   -0.000042157980
C    0.249945243610   -0.000045295090    0.249961993950
C    0.250019029780   -0.000115419810    0.499978236890
C    0.250033077590   -0.000120374620    0.749961880580
C    0.249944553480    0.249952666820   -0.000035663600
C    0.250004118010    0.250028691940    0.250037971310
C    0.249517674540    0.249490594070    0.500058450500
C    0.249980432210    0.249950121480    0.749955425390
C    0.250019176180    0.499969530840   -0.000105792040
C    0.249517732080    0.500048162820    0.249500523470
C    0.250481977430    0.499816829690    0.499827468560
C    0.249886753490    0.499783135500    0.750102440800
C    0.250033691800    0.749952459190   -0.000108824940
C    0.249981581730    0.749944382530    0.249961735100
C    0.249886655490    0.750092066110    0.499793447100
C    0.250362013050    0.749720505510    0.749731197610
C    0.499990737720   -0.000017331410   -0.000008190690
C    0.499965128800   -0.000082446950    0.250028948920
C    0.499994058760   -0.000035398160    0.500006398280
C    0.500021459150    0.000017938710    0.749993267960
C    0.499964868510    0.250020617100   -0.000074046870
C    0.499943085200    0.249581180090    0.249590110400
C    0.499811402240    0.250279653950    0.499891974390
C    0.499822900370    0.249710174920    0.750254478360
C    0.499994277590    0.499998262470   -0.000026907590
C    0.499811884720    0.499881619870    0.250289853480
C    0.500116834160    0.500060061960    0.749609179440
C    0.500021933100    0.749984404480    0.000027868940
C    0.499823705870    0.750245303250    0.249719557770
C    0.500117207550    0.749599893790    0.500069536740
C    0.500299265640    0.750345362730    0.750354399900
C    0.749992092230    0.000050038420    0.000057217920
C    0.749950938130   -0.000060226120    0.250053677960
C    0.749976709910    0.000053363500    0.500035468760
C    0.750045474130    0.000168101580    0.750054203310
C    0.749950813080    0.250046730370   -0.000053007310
C    0.749898943800    0.250005982910    0.250013379930
C    0.750013762860    0.249911088420    0.499912500510
C    0.749765345000    0.250317347010    0.749804569190
C    0.749976737090    0.500028487410    0.000060864330
C    0.750013543200    0.499903535530    0.249920501960
C    0.749542716790    0.500123085490    0.500132653980
C    0.750370003450    0.500288941430    0.750404474290
C    0.750045615030    0.750047043750    0.000175694460
C    0.749764745220    0.749795724080    0.250326414460
C    0.750369724220    0.750396067860    0.500297275130
C    0.750253195320    0.750247395050    0.750254900360
C   -0.000043542200    0.124989696410    0.124996880340
C   -0.000069607580    0.124979772000    0.374991600700
C   -0.000093800750    0.125049257880    0.624998179490
C   -0.000030835360    0.125027458520    0.874977718570
C   -0.000069852550    0.374984326930    0.124987721510
C   -0.000102864230    0.375013834330    0.375022004020
C   -0.000047437620    0.375033397270    0.624969328770
C   -0.000053993640    0.375011356000    0.874967932750
C   -0.000093639380    0.624990444070    0.125058104950
C   -0.000047551410    0.624961125980    0.375041776340
C    0.000114008910    0.624989771560    0.624998140910
C    0.000126436070    0.625015479460    0.875022937680
C   -0.000030522050    0.874970215820    0.125035230160
C   -0.000053641190    0.874959623020    0.375019060280
C    0.000126324510    0.875014422470    0.625022947070
C    0.000098143600    0.875010351390    0.875017940420
C    0.249959940890    0.124976215850    0.124985038770
C    0.249958775640    0.124912266380    0.374980232940
C    0.249902956590    0.124843662210    0.624993749130
C    0.249978912690    0.124944140500    0.874965308210
C    0.249958925660    0.374971361840    0.124921221810
C    0.250210575120    0.375126290390    0.375136351770
C    0.249966692130    0.374847453970    0.624921722080
C    0.249947123090    0.374938637400    0.874994583340
C    0.249903945960    0.624983387700    0.124855232950
C    0.249967279500    0.624910471990    0.374858829920
C    0.250615461060    0.624519588250    0.624529913830
C    0.250290254290    0.624915775590    0.874722436390
C    0.249979897010    0.874955488890    0.124954853860
C    0.249948002300    0.874983898710    0.374949031400
C    0.250290311320    0.874711464860    0.624925352370
C    0.250085461310    0.874887545120    0.874897589400
C    0.499975106170    0.124839118460    0.124847239950
C    0.499932788880    0.124983899350    0.374986926730
C    0.499927600740    0.125053610730    0.624937663120
C    0.499945902230    0.124897041110    0.875089888760
C    0.499932923150    0.374978494040    0.124992392120
C    0.500129686060    0.375186146560    0.375196472770
C    0.498991274690    0.375569037690    0.624095793160
C    0.499984284620    0.375107138880    0.874827283330
C    0.499928660990    0.624927852790    0.125063815510
C    0.498991792430    0.624086450160    0.375578542270
C    0.502711730490    0.624679970170    0.624689234370
C    0.500117166150    0.625006099560    0.874972570480
C    0.499946464520    0.875080419060    0.124906929860
C    0.499984759500    0.874818520700    0.375116122170
C    0.500117065650    0.874963561030    0.625014607480
C    0.500088320630    0.875109006680    0.875117955730
C    0.749953887380    0.125001137220    0.125008038930
C    0.749959164940    0.124971461180    0.374997818490
C    0.749872615500    0.125156366690    0.624959404360
C    0.749946617720    0.125153307790    0.874944824330
C    0.749958975270    0.374990607290    0.124979092990
C    0.749845244760    0.375004226730    0.375012983650
C    0.749174933490    0.375759958800    0.624835491960
C    0.749904384770    0.375114922820    0.874919108310
C    0.749872612050    0.624951548690    0.125164680790
C    0.749175257570    0.624826211410    0.375769348380
C    0.750513796210    0.625400157170    0.625408938150
C    0.750197792540    0.625154389490    0.875264379130
C    0.749946596110    0.874937258080    0.125160972930
C    0.749904229370    0.874911379690    0.375122481130
C    0.750197547250    0.875256724020    0.625161494300
C    0.750095532050    0.875133771760    0.875140925380
C    0.124970855950   -0.000029747700    0.124985817850
C    0.124941762710   -0.000048953010    0.374980402150
C    0.125042076430   -0.000102359570    0.624989862760
C    0.125029027270   -0.000042025340    0.874967741700
C    0.124957425820    0.249984700350    0.124992621150
C    0.124925757630    0.249995858700    0.374987906510
C    0.124882317900    0.249908162940    0.624985805090
C    0.124957531670    0.249979620370    0.874961706330
C    0.124790025160    0.500003779040    0.124807123870
C    0.125027219550    0.499960582560    0.374984324080
C    0.125151488100    0.499910319190    0.624882811890
C    0.124952451600    0.499940328700    0.875027937880
C    0.124977728810    0.749965215040    0.124978215540
C    0.124952516820    0.749983046410    0.374963527260
C    0.125209281040    0.749829453520    0.624908127570
C    0.125169494820    0.749925767870    0.874900035010
C    0.374961293070   -0.000038962880    0.124954803500
C    0.374987316840   -0.000096447070    0.374998452490
C    0.375028403090   -0.000080225670    0.624970762670
C    0.375007205860   -0.000076343000    0.874968678350
C    0.374942789710    0.249978373160    0.124930720480
C    0.375051257380    0.250100427420    0.375121017740
C    0.374880432760    0.249831486170    0.624986883850
C    0.374952183060    0.249911876870    0.875022593510
C    0.374955092390    0.499966883750    0.124972950530
C    0.375348413910    0.500544110260    0.375173482470
C    0.376072932710    0.498934171200    0.623768683650
C    0.375139268000    0.499960182190    0.874795090780
C    0.374960037580    0.750022154110    0.124896143620
C    0.374979255890    0.749974774520    0.374893148360
C    0.375798711430    0.749175913380    0.624736616430
C    0.375126482130    0.749877590150    0.874865718180
C    0.624982243830   -0.000057884620    0.125061007600
C    0.624957948490   -0.000037695090    0.375041971310
C    0.625008608420    0.000080438390    0.625020228530
C    0.625026531320    0.000104675950    0.875049072690
C    0.624946868440    0.249941401530    0.124917130240
C    0.624849272130    0.249933498220    0.374924489890
C    0.624581628600    0.250419102500    0.624675878810
C    0.624944039060    0.250256222430    0.874791441900
C    0.624889976950    0.499957229760    0.125091982950
C    0.623714473810    0.499356858740    0.375840280880
C    0.624693549220    0.502713325190    0.624795023830
C    0.625024836920    0.500102219370    0.874996885360
C    0.624933542430    0.749903427260    0.125138709530
C    0.624774494210    0.749266905750    0.375742917160
C    0.625393406650    0.750535759310    0.625393144060
C    0.625158223730    0.750190432590    0.875255707070
C    0.874961845700   -0.000015990030    0.125043831110
C    0.874947643310   -0.000026665500    0.375027579860
C    0.875033065290    0.000114420980    0.625033735730
C    0.875022776350    0.000089046610    0.875029972020
C    0.874934124230    0.250004228490    0.124994391580
C    0.874934101560    0.249989989420    0.374996339820
C    0.874724461740    0.250285526850    0.624966589690
C    0.874910051740    0.250084251210    0.874934828420
C    0.874988201020    0.499973883330    0.125000145400
C    0.874764673160    0.500003311990    0.375156323420
C    0.874965380370    0.500110534590    0.625031380850
C    0.875123689730    0.500087389460    0.875131748660
C    0.874919303760    0.749956145090    0.125161969880
C    0.874880516300    0.749907048740    0.375126066240
C    0.875262262170    0.750188054000    0.625157101400
C    0.875144402510    0.750085867710    0.875135844290
C    0.124970460260    0.124977693220   -0.000021578870
C    0.124957596220    0.124984176080    0.249992638840
C    0.124789572950    0.124797308340    0.500012712210
C    0.124976918870    0.124968320170    0.749973902700
C    0.124941274170    0.374972142900   -0.000039874910
C    0.124925728590    0.374979239780    0.250004742200
C    0.125027294530    0.374974985060    0.499969942530
C    0.124951740340    0.374953818950    0.749992886800
C    0.125042466290    0.624981484470   -0.000092091370
C    0.124883092240    0.624976319750    0.249918285640
C    0.125151398650    0.624873025500    0.499920034240
C    0.125209272620    0.624898623900    0.749839558320
C    0.125029368310    0.874959616110   -0.000033119270
C    0.124958426330    0.874952691480    0.249988653330
C    0.124952994130    0.875017994020    0.499949380360
C    0.125169414290    0.874890105530    0.749934495280
C    0.374960862510    0.124944929170   -0.000029247730
C    0.374942855080    0.124922064740    0.249986919160
C    0.374954434970    0.124963207040    0.499976592700
C    0.374959094850    0.124884391960    0.750032931910
C    0.374987164440    0.374989786430   -0.000087556560
C    0.375051406970    0.375110713910    0.250110646780
C    0.375348031950    0.375163453160    0.500554154390
C    0.374978632850    0.374882826440    0.749984737990
C    0.375028958530    0.624961655890   -0.000069743980
C    0.374881244090    0.624976351850    0.249842106660
C    0.376073203480    0.623759049510    0.498944008810
C    0.375798744080    0.624726690840    0.749185933870
C    0.375007623580    0.874958805020   -0.000065296600
C    0.374953014720    0.875012009490    0.249922735760
C    0.375139379920    0.874785604500    0.499969585610
C    0.375126367130    0.874854983080    0.749887228900
C    0.624982160640    0.125053423980   -0.000050280790
C    0.624946983250    0.124909524500    0.249948859160
C    0.624889682110    0.125083607060    0.499965475320
C    0.624933001130    0.125129604640    0.749912197530
C    0.624957855250    0.375034504690   -0.000030054170
C    0.624849378040    0.374915697800    0.249942367110
C    0.623713795830    0.375830722730    0.499366589100
C    0.624774060000    0.375734005270    0.749275636660
C    0.625008899510    0.625012622800    0.000088561570
C    0.624581983640    0.624665801530    0.250429259180
C    0.624693917530    0.624786137170    0.502722238210
C    0.625393553110    0.625384391400    0.750544862500
C    0.625026623640    0.875041083850    0.000112921170
C    0.624944268950    0.874783424930    0.250264496480
C    0.625024806050    0.874988870300    0.500110106630
C    0.625158138700    0.875247753590    0.750198005630
C    0.874961771330    0.125036906740   -0.000008949560
C    0.874934249390    0.124987324620    0.250011024080
C    0.874988570250    0.124992043270    0.499981123050
C    0.874919472740    0.125153827050    0.749963700520
C    0.874947480410    0.375020809120   -0.000019178830
C    0.874934002310    0.374988753290    0.249997842140
C    0.874764812320    0.375147259550    0.500012046310
C    0.874881017640    0.375117767830    0.749915313320
C    0.875033176610    0.625026843040    0.000122193750
C    0.874723827480    0.624958070920    0.250294656430
C    0.874965227060    0.625023033220    0.500118994420
C    0.875262393700    0.625149662540    0.750195744340
C    0.875022827960    0.875022960180    0.000096306570
C    0.874909961240    0.874927107090    0.250091712500
C    0.875123520690    0.875124092140    0.500094415580
C    0.875144303820    0.875128506990    0.750092809070
C    0.187457048380    0.062475575140    0.187482664400
C    0.187431433310    0.062390841530    0.437478998600
C    0.187492399980    0.062390187720    0.687480159440
C    0.187495246860    0.062460995490    0.937469384300
C    0.187457570150    0.312477804520    0.187486607970
C    0.187455515930    0.312414845860    0.437458816940
C    0.187430361010    0.312454021180    0.687451236270
C    0.187448761690    0.312466870290    0.937478254110
C    0.187166026060    0.562417691120    0.187163884200
C    0.187643635340    0.562367566240    0.437445060120
C    0.187753346010    0.562361719030    0.687326253880
C    0.187602046820    0.562450898390    0.937354339980
C    0.187481458780    0.812449772470    0.187479780260
C    0.187363240860    0.812604669890    0.437504072810
C    0.187749476600    0.812289897110    0.687381399230
C    0.187574567220    0.812437026270    0.937417294400
C    0.437452518280    0.062413234250    0.187460465860
C    0.437453468650    0.062446177150    0.437483032260
C    0.437496616820    0.062476365640    0.687476205010
C    0.437503445520    0.062414608930    0.937524024490
C    0.437389098030    0.312426741990    0.187425198270
C    0.437443767040    0.312723785780    0.437588727420
C    0.437672253310    0.311869725030    0.688060673590
C    0.437484428460    0.312510743830    0.937402820860
C    0.437432360960    0.562415804860    0.187525760780
C    0.438650848090    0.561805637560    0.686277293800
C    0.437545299960    0.562489466140    0.937424806070
C    0.437514321410    0.812690768660    0.187275462760
C    0.437556131420    0.812287978880    0.437522354530
C    0.437748399110    0.812322384460    0.687444121070
C    0.437560935340    0.812463505530    0.937466802490
C    0.687461271040    0.062445529090    0.187522876130
C    0.687440189880    0.062523272590    0.437526450020
C    0.687486950900    0.062617855190    0.687510500100
C    0.687487593840    0.062598501470    0.937499494460
C    0.687411664240    0.312493735990    0.187446942010
C    0.687736942290    0.312140954980    0.437655980490
C    0.687111879030    0.312936570240    0.687194471090
C    0.687449556630    0.312587311310    0.937426966440
C    0.687337492100    0.562455883670    0.187668425280
C    0.686246316940    0.561949521700    0.438652498200
C    0.688355949650    0.562900662120    0.688401202940
C    0.687545917700    0.562567444840    0.937588809390
C    0.687400195320    0.812356350440    0.187717061610
C    0.687471840980    0.812383233130    0.437727678750
C    0.687776983320    0.812884717260    0.687778061730
C    0.687593543680    0.812619274620    0.937695285150
C    0.937450999480    0.062485686550    0.187519705040
C    0.937466941880    0.062472527570    0.437522498990
C    0.937475800000    0.062595230890    0.687499428860
C    0.937493687480    0.062542002610    0.937508197160
C    0.937435425960    0.312492095240    0.187495469130
C    0.937355690150    0.312550357370    0.437518012920
C    0.937388289050    0.312598393080    0.687460949060
C    0.937433967140    0.312536616760    0.937461200760
C    0.937345842970    0.562470839470    0.187629784880
C    0.937422816700    0.562502912180    0.437562015290
C    0.937586674900    0.562562588740    0.687542635000
C    0.937571756940    0.562524523640    0.937575153320
C    0.937431369550    0.812459265880    0.187581395710
C    0.937484607900    0.812469327280    0.437570013180
C    0.937706111650    0.812604025840    0.687589406220
C    0.937586375040    0.812536728210    0.937582527080
C    0.062474926370    0.062486885510    0.062494519500
C    0.062448657680    0.062477258580    0.312499092310
C    0.062397021280    0.062405552600    0.562476754820
C    0.062509319200    0.062502020000    0.812483370510
C    0.062448303060    0.312491507530    0.062485613780
C    0.062397875500    0.312470705410    0.312478984650
C    0.062449350160    0.312499685940    0.562466053840
C    0.062435555440    0.312505517650    0.812467675070
C    0.062397419060    0.562468530420    0.062415200540
C    0.062449352050    0.562457478970    0.312508590340
C    0.062591025960    0.562460248160    0.562469355790
C    0.062598421290    0.562485893570    0.812456359460
C    0.062509876110    0.812475521460    0.062510727190
C    0.062436294510    0.812458815500    0.312514230890
C    0.062598550530    0.812447206350    0.562494373600
C    0.062665038060    0.812469728350    0.812478347450
C    0.312472129520    0.062465048840    0.062474475530
C    0.312438104940    0.062403017810    0.312464846940
C    0.312482414430    0.062410727720    0.562470603950
C    0.312499368370    0.062397688760    0.812479000580
C    0.312437942910    0.312456194520    0.062411848250
C    0.312524995000    0.312548552260    0.312558845990
C    0.311779333330    0.311687199360    0.562184531600
C    0.312483147000    0.312447738210    0.812524373350
C    0.312483083200    0.562461200860    0.062421080810
C    0.311779610180    0.562174015860    0.311697365230
C    0.313359196080    0.561941658520    0.561951605970
C    0.312869578390    0.562335182600    0.812084490660
C    0.312500383510    0.812468622460    0.062409570040
C    0.312484094840    0.812513500570    0.312458868460
C    0.312869694010    0.812074030430    0.562345171170
C    0.312649417390    0.812338414570    0.812348854060
C    0.562464179410    0.062434145670    0.062442037060
C    0.562441248800    0.062449554570    0.312510365750
C    0.562468679000    0.062536623600    0.562499581290
C    0.562497603340    0.062547302480    0.812504373750
C    0.562441167980    0.312502586710    0.062457412940
C    0.562129101600    0.311807890640    0.311817209550
C    0.561982226700    0.313016410600    0.562220927360
C    0.562370469850    0.312795764820    0.812168590660
C    0.562469199010    0.562491292600    0.062545205000
C    0.561982697350    0.562210681180    0.313026552170
C    0.562625365140    0.562596725790    0.812524171510
C    0.562498168280    0.812495447240    0.062556815380
C    0.562371047430    0.812159912120    0.312804624310
C    0.562625515120    0.812515485560    0.562605362650
C    0.562655425440    0.812783895020    0.812792038730
C    0.812471557360    0.062522913850    0.062529823880
C    0.812445990060    0.062464517820    0.312528684530
C    0.812463546830    0.062586259330    0.562517954250
C    0.812489274560    0.062650379650    0.812504965000
C    0.812445820520    0.312521915530    0.062471760300
C    0.812427816980    0.312515447290    0.312523286860
C    0.812060220190    0.312877877440    0.562416380080
C    0.812371562890    0.312635672400    0.812398723430
C    0.812463524310    0.562510868490    0.062594036170
C    0.812059952830    0.562407193750    0.312887449460
C    0.812486873900    0.562629692340    0.562638386830
C    0.812803276620    0.562650203800    0.812811663170
C    0.812489318270    0.812497761300    0.062657937500
C    0.812371175160    0.812390596720    0.312643679580
C    0.812803098430    0.812803957250    0.562657485590
C    0.812681180080    0.812670729050    0.812677832840
C    0.062450722480    0.187484792480    0.187492521430
C    0.062391475180    0.187461724400    0.437485477420
C    0.062413898240    0.187498814840    0.687481031530
C    0.062463990320    0.187502131030    0.937474793540
C    0.062391408070    0.437477336820    0.187470379210
C    0.062477677310    0.437474673650    0.437483434720
C    0.062539332930    0.437499041060    0.687446603000
C    0.062429544250    0.437507352700    0.937503622540
C    0.062414559120    0.687472524160    0.187508196290
C    0.062539409370    0.687437694570    0.437507877090
C    0.062665248660    0.687460828550    0.687469919590
C    0.062603128920    0.687480204890    0.937466262870
C    0.062464627240    0.937466701020    0.187510112170
C    0.062430090580    0.937494516000    0.437515513160
C    0.062602971640    0.937456811050    0.687488145000
C    0.062540369080    0.937489162560    0.937497065220
C    0.312448211630    0.187476190020    0.187484904070
C    0.312374548380    0.187392702520    0.437461679950
C    0.312461408860    0.187349504230    0.687479605940
C    0.312460674060    0.187442157730    0.937490933040
C    0.312375013590    0.437451621240    0.187402404850
C    0.312980317980    0.437570012300    0.437580097670
C    0.312148533340    0.437587432080    0.687870438370
C    0.312522933340    0.437481324660    0.937380109330
C    0.312462482320    0.687468529230    0.187361352880
C    0.312148742390    0.687860451030    0.437597756020
C    0.313012887100    0.687080447150    0.687090834090
C    0.312593629950    0.687435624120    0.937371686430
C    0.312461709330    0.937480569360    0.187452846290
C    0.312523260880    0.937370701180    0.437490426640
C    0.312593409390    0.937360541240    0.687444881140
C    0.312526898340    0.937423903100    0.937434040570
C    0.562394084570    0.187232071790    0.187240069340
C    0.562346537390    0.187551744750    0.437496806480
C    0.562389716750    0.187608243270    0.687443007240
C    0.562457342870    0.187584036930    0.937403805760
C    0.562346932650    0.437487808710    0.187560565420
C    0.561860096980    0.438514936530    0.686370161770
C    0.562497381260    0.437537865680    0.937447055470
C    0.562390832710    0.687432941000    0.187618533710
C    0.561860760350    0.686361371190    0.438524065310
C    0.562918642260    0.688334288470    0.688343634910
C    0.562568282530    0.687541656060    0.937571808110
C    0.562457751760    0.937395573370    0.187592452470
C    0.562497526460    0.937439018160    0.437545830020
C    0.562568096030    0.937563246340    0.687549546030
C    0.562526537640    0.937570148990    0.937578567420
C    0.812427494380    0.187507019690    0.187513947300
C    0.812541441540    0.187415581670    0.437534339470
C    0.812323715300    0.187721772450    0.687429492910
C    0.812447674800    0.187577566930    0.937458910300
C    0.812541062030    0.437526566270    0.187424021150
C    0.812222042690    0.437578120820    0.437587250980
C    0.812337607870    0.437744520110    0.687492935900
C    0.812472886240    0.437563948760    0.937504531570
C    0.812323272140    0.687421342140    0.187730501200
C    0.812337235220    0.687484263860    0.437753377860
C    0.812888338100    0.687771777260    0.687779551700
C    0.812620878060    0.687591497180    0.937698680650
C    0.812447748110    0.937451609830    0.187584687590
C    0.812472855090    0.937497073350    0.437570857040
C    0.812620699640    0.937691212040    0.687598370950
C    0.812541704550    0.937583489840    0.937590524890
C    0.187456635820    0.187474130610    0.062484488370
C    0.187457476820    0.187477684270    0.312486404130
C    0.187165633560    0.187153342210    0.562427815930
C    0.187480289550    0.187469189530    0.812459633690