&CONTROL
calculation = 'scf'
restart_mode = 'from_scratch'
prefix = 'pwscf'
pseudo_dir = './'
outdir = './'
tprnfor = .TRUE.
verbosity = 'high'
forc_conv_thr = 0.000039
/
&SYSTEM
ibrav = 0
nat = 511
ntyp = 2
ecutwfc = 80
tot_charge = -1
nspin = 2
tot_magnetization = 2
occupations = 'from_input'
nbnd = 1032
/
&ELECTRONS
electron_maxstep = 100
conv_thr = 1.0d-10
mixing_mode = 'plain'
mixing_beta = 0.7
diagonalization = 'david'
diago_full_acc = .TRUE.
startingpot = 'atomic'
startingwfc = 'atomic+random'
/
&IONS
ion_dynamics='bfgs'
ion_positions='default'
/
ATOMIC_SPECIES
C  12.011   C_ONCV_PBE-1.2.upf
N  14.0067  N_ONCV_PBE-1.2.upf
CELL_PARAMETERS angstrom
14.272  0.0000  0.0000
0.0000  14.272  0.0000
0.0000  0.0000  14.272
K_POINTS gamma
OCCUPATIONS
1 1 1 1 1 1 1 1 1 1
1 1 1 1 1 1 1 1 1 1
1 1 1 1 1 1 1 1 1 1
1 1 1 1 1 1 1 1 1 1
1 1 1 1 1 1 1 1 1 1
1 1 1 1 1 1 1 1 1 1
1 1 1 1 1 1 1 1 1 1
1 1 1 1 1 1 1 1 1 1
1 1 1 1 1 1 1 1 1 1
1 1 1 1 1 1 1 1 1 1
1 1 1 1 1 1 1 1 1 1
1 1 1 1 1 1 1 1 1 1
1 1 1 1 1 1 1 1 1 1
1 1 1 1 1 1 1 1 1 1
1 1 1 1 1 1 1 1 1 1
1 1 1 1 1 1 1 1 1 1
1 1 1 1 1 1 1 1 1 1
1 1 1 1 1 1 1 1 1 1
1 1 1 1 1 1 1 1 1 1
1 1 1 1 1 1 1 1 1 1
1 1 1 1 1 1 1 1 1 1
1 1 1 1 1 1 1 1 1 1
1 1 1 1 1 1 1 1 1 1
1 1 1 1 1 1 1 1 1 1
1 1 1 1 1 1 1 1 1 1
1 1 1 1 1 1 1 1 1 1
1 1 1 1 1 1 1 1 1 1
1 1 1 1 1 1 1 1 1 1
1 1 1 1 1 1 1 1 1 1
1 1 1 1 1 1 1 1 1 1
1 1 1 1 1 1 1 1 1 1
1 1 1 1 1 1 1 1 1 1
1 1 1 1 1 1 1 1 1 1
1 1 1 1 1 1 1 1 1 1
1 1 1 1 1 1 1 1 1 1
1 1 1 1 1 1 1 1 1 1
1 1 1 1 1 1 1 1 1 1
1 1 1 1 1 1 1 1 1 1
1 1 1 1 1 1 1 1 1 1
1 1 1 1 1 1 1 1 1 1
1 1 1 1 1 1 1 1 1 1
1 1 1 1 1 1 1 1 1 1
1 1 1 1 1 1 1 1 1 1
1 1 1 1 1 1 1 1 1 1
1 1 1 1 1 1 1 1 1 1
1 1 1 1 1 1 1 1 1 1
1 1 1 1 1 1 1 1 1 1
1 1 1 1 1 1 1 1 1 1
1 1 1 1 1 1 1 1 1 1
1 1 1 1 1 1 1 1 1 1
1 1 1 1 1 1 1 1 1 1
1 1 1 1 1 1 1 1 1 1
1 1 1 1 1 1 1 1 1 1
1 1 1 1 1 1 1 1 1 1
1 1 1 1 1 1 1 1 1 1
1 1 1 1 1 1 1 1 1 1
1 1 1 1 1 1 1 1 1 1
1 1 1 1 1 1 1 1 1 1
1 1 1 1 1 1 1 1 1 1
1 1 1 1 1 1 1 1 1 1
1 1 1 1 1 1 1 1 1 1
1 1 1 1 1 1 1 1 1 1
1 1 1 1 1 1 1 1 1 1
1 1 1 1 1 1 1 1 1 1
1 1 1 1 1 1 1 1 1 1
1 1 1 1 1 1 1 1 1 1
1 1 1 1 1 1 1 1 1 1
1 1 1 1 1 1 1 1 1 1
1 1 1 1 1 1 1 1 1 1
1 1 1 1 1 1 1 1 1 1
1 1 1 1 1 1 1 1 1 1
1 1 1 1 1 1 1 1 1 1
1 1 1 1 1 1 1 1 1 1
1 1 1 1 1 1 1 1 1 1
1 1 1 1 1 1 1 1 1 1
1 1 1 1 1 1 1 1 1 1
1 1 1 1 1 1 1 1 1 1
1 1 1 1 1 1 1 1 1 1
1 1 1 1 1 1 1 1 1 1
1 1 1 1 1 1 1 1 1 1
1 1 1 1 1 1 1 1 1 1
1 1 1 1 1 1 1 1 1 1
1 1 1 1 1 1 1 1 1 1
1 1 1 1 1 1 1 1 1 1
1 1 1 1 1 1 1 1 1 1
1 1 1 1 1 1 1 1 1 1
1 1 1 1 1 1 1 1 1 1
1 1 1 1 1 1 1 1 1 1
1 1 1 1 1 1 1 1 1 1
1 1 1 1 1 1 1 1 1 1
1 1 1 1 1 1 1 1 1 1
1 1 1 1 1 1 1 1 1 1
1 1 1 1 1 1 1 1 1 1
1 1 1 1 1 1 1 1 1 1
1 1 1 1 1 1 1 1 1 1
1 1 1 1 1 1 1 1 1 1
1 1 1 1 1 1 1 1 1 1
1 1 1 1 1 1 1 1 1 1
1 1 1 1 1 1 1 1 1 1
1 1 1 1 1 1 1 1 1 1
1 1 1 1 1 1 1 1 1 1
1 1 1 1 1 1 1 1 1 1
1 1 1 1 0 0 0 0 0 0
0 0
1 1 1 1 1 1 1 1 1 1
1 1 1 1 1 1 1 1 1 1
1 1 1 1 1 1 1 1 1 1
1 1 1 1 1 1 1 1 1 1
1 1 1 1 1 1 1 1 1 1
1 1 1 1 1 1 1 1 1 1
1 1 1 1 1 1 1 1 1 1
1 1 1 1 1 1 1 1 1 1
1 1 1 1 1 1 1 1 1 1
1 1 1 1 1 1 1 1 1 1
1 1 1 1 1 1 1 1 1 1
1 1 1 1 1 1 1 1 1 1
1 1 1 1 1 1 1 1 1 1
1 1 1 1 1 1 1 1 1 1
1 1 1 1 1 1 1 1 1 1
1 1 1 1 1 1 1 1 1 1
1 1 1 1 1 1 1 1 1 1
1 1 1 1 1 1 1 1 1 1
1 1 1 1 1 1 1 1 1 1
1 1 1 1 1 1 1 1 1 1
1 1 1 1 1 1 1 1 1 1
1 1 1 1 1 1 1 1 1 1
1 1 1 1 1 1 1 1 1 1
1 1 1 1 1 1 1 1 1 1
1 1 1 1 1 1 1 1 1 1
1 1 1 1 1 1 1 1 1 1
1 1 1 1 1 1 1 1 1 1
1 1 1 1 1 1 1 1 1 1
1 1 1 1 1 1 1 1 1 1
1 1 1 1 1 1 1 1 1 1
1 1 1 1 1 1 1 1 1 1
1 1 1 1 1 1 1 1 1 1
1 1 1 1 1 1 1 1 1 1
1 1 1 1 1 1 1 1 1 1
1 1 1 1 1 1 1 1 1 1
1 1 1 1 1 1 1 1 1 1
1 1 1 1 1 1 1 1 1 1
1 1 1 1 1 1 1 1 1 1
1 1 1 1 1 1 1 1 1 1
1 1 1 1 1 1 1 1 1 1
1 1 1 1 1 1 1 1 1 1
1 1 1 1 1 1 1 1 1 1
1 1 1 1 1 1 1 1 1 1
1 1 1 1 1 1 1 1 1 1
1 1 1 1 1 1 1 1 1 1
1 1 1 1 1 1 1 1 1 1
1 1 1 1 1 1 1 1 1 1
1 1 1 1 1 1 1 1 1 1
1 1 1 1 1 1 1 1 1 1
1 1 1 1 1 1 1 1 1 1
1 1 1 1 1 1 1 1 1 1
1 1 1 1 1 1 1 1 1 1
1 1 1 1 1 1 1 1 1 1
1 1 1 1 1 1 1 1 1 1
1 1 1 1 1 1 1 1 1 1
1 1 1 1 1 1 1 1 1 1
1 1 1 1 1 1 1 1 1 1
1 1 1 1 1 1 1 1 1 1
1 1 1 1 1 1 1 1 1 1
1 1 1 1 1 1 1 1 1 1
1 1 1 1 1 1 1 1 1 1
1 1 1 1 1 1 1 1 1 1
1 1 1 1 1 1 1 1 1 1
1 1 1 1 1 1 1 1 1 1
1 1 1 1 1 1 1 1 1 1
1 1 1 1 1 1 1 1 1 1
1 1 1 1 1 1 1 1 1 1
1 1 1 1 1 1 1 1 1 1
1 1 1 1 1 1 1 1 1 1
1 1 1 1 1 1 1 1 1 1
1 1 1 1 1 1 1 1 1 1
1 1 1 1 1 1 1 1 1 1
1 1 1 1 1 1 1 1 1 1
1 1 1 1 1 1 1 1 1 1
1 1 1 1 1 1 1 1 1 1
1 1 1 1 1 1 1 1 1 1
1 1 1 1 1 1 1 1 1 1
1 1 1 1 1 1 1 1 1 1
1 1 1 1 1 1 1 1 1 1
1 1 1 1 1 1 1 1 1 1
1 1 1 1 1 1 1 1 1 1
1 1 1 1 1 1 1 1 1 1
1 1 1 1 1 1 1 1 1 1
1 1 1 1 1 1 1 1 1 1
1 1 1 1 1 1 1 1 1 1
1 1 1 1 1 1 1 1 1 1
1 1 1 1 1 1 1 1 1 1
1 1 1 1 1 1 1 1 1 1
1 1 1 1 1 1 1 1 1 1
1 1 1 1 1 1 1 1 1 1
1 1 1 1 1 1 1 1 1 1
1 1 1 1 1 1 1 1 1 1
1 1 1 1 1 1 1 1 1 1
1 1 1 1 1 1 1 1 1 1
1 1 1 1 1 1 1 1 1 1
1 1 1 1 1 1 1 1 1 1
1 1 1 1 1 1 1 1 1 1
1 1 1 1 1 1 1 1 1 1
1 1 1 1 1 1 1 1 1 1
1 1 1 1 1 1 1 1 1 1
1 1 1 1 1 1 1 1 1 1
1 1 1 1 1 1 1 1 1 1
1 0 1 0 0 0 0 0 0 0
0 0
ATOMIC_POSITIONS crystal
C   -0.000028384110   -0.000020515030    0.000001270190
C   -0.000051021160    0.000009037370    0.250013518280
C   -0.000120685390   -0.000042693320    0.500007842630
C   -0.000012124910   -0.000052956780    0.749994408960
C   -0.000051973980    0.249991962320    0.000032153980
C    0.000000149530    0.250025074980    0.250047628800
C   -0.000052565850    0.250040631100    0.500046081400
C   -0.000118588610    0.249968580930    0.750026539330
C   -0.000120777460    0.499985797870   -0.000016795950
C   -0.000053043120    0.500022442780    0.250065822070
C    0.000031348000    0.499986563390    0.500011701070
C    0.000011712270    0.499954529300    0.749954552850
C   -0.000011629150    0.749972592260   -0.000027911190
C   -0.000117821330    0.750002037490    0.249993876490
C    0.000011674260    0.749929595890    0.499978378520
C    0.000088420600    0.749927353760    0.749951550840
C    0.249955196570   -0.000046775360   -0.000019159140
C    0.249916087630    0.000078093530    0.249966334650
C    0.249971459740   -0.000070081830    0.500002386470
C    0.249960390770   -0.000204127060    0.750004591340
C    0.249914019240    0.249938373260    0.000107002000
C    0.250113485830    0.250187225620    0.250215043730
C    0.249565981620    0.249484742210    0.500290217900
C    0.249928317830    0.249837401640    0.750122440970
C    0.249971892940    0.499976314320   -0.000041148520
C    0.249566178240    0.500259370860    0.249514566410
C    0.250815765890    0.499910385470    0.499942326080
C    0.249676054670    0.499624328100    0.750401074000
C    0.249962229400    0.749976335170   -0.000169450020
C    0.249931782390    0.750089296390    0.249872256500
C    0.249675782670    0.750369943930    0.499655238900
C    0.250293586950    0.749646423930    0.749678498230
C    0.499957809960   -0.000047680430   -0.000020250270
C    0.499963040200    0.000028840750    0.250001217160
C    0.499975352080   -0.000027229880    0.500012404640
C    0.499979368850   -0.000108890070    0.750017057480
C    0.499962285330    0.249976223700    0.000054072990
C    0.499944110000    0.249756506270    0.249783309200
C    0.499894091120    0.250208771450    0.500135823570
C    0.499743576710    0.249146320960    0.750857200680
C    0.499976018570    0.499988001210   -0.000001704170
C    0.499895558560    0.500104752010    0.250239422040
C    0.500019191480    0.499848944880    0.749769399120
C    0.499980776700    0.749990469040   -0.000079067380
C    0.499745993210    0.750829651350    0.249174495510
C    0.500020321650    0.749741540170    0.499877339220
C    0.500083429920    0.750003627390    0.750030708900
C    0.749981505890   -0.000000493940    0.000021028560
C    0.749971759990   -0.000023669560    0.250022179880
C    0.749967377330   -0.000002617700    0.500021403680
C    0.749997573790    0.000005791140    0.750023751330
C    0.749971404840    0.250001351110   -0.000002007130
C    0.749952988200    0.250004987930    0.250027164990
C    0.750135060180    0.249749057460    0.500012399130
C    0.749780950400    0.250159582830    0.749898622970
C    0.749967470870    0.500000481630    0.000019904790
C    0.750134401200    0.499985508190    0.249777312080
C    0.749570039170    0.500038001470    0.500066672940
C    0.750077553550    0.500052513290    0.750180948070
C    0.749997986490    0.750002278650    0.000028551780
C    0.749779137060    0.749872075640    0.250186783180
C    0.750076707860    0.750155736780    0.500077484390
C    0.750080460360    0.750063073550    0.750085559480
C   -0.000027285800    0.125008458230    0.125029990020
C   -0.000032782940    0.125018717400    0.375025953700
C   -0.000121446050    0.124983597840    0.625036123670
C   -0.000057150880    0.124971328760    0.875012416510
C   -0.000033519850    0.375004168390    0.125042567930
C   -0.000008958890    0.375045495190    0.375069980260
C   -0.000026051460    0.374995737610    0.625002782310
C   -0.000105534120    0.374967691000    0.875010853450
C   -0.000120949940    0.625012913410    0.125010143050
C   -0.000026368830    0.624978163940    0.375020860820
C    0.000077191530    0.624924090280    0.624949184330
C    0.000030974810    0.624964748980    0.874944662040
C   -0.000056208950    0.874989894260    0.124994627680
C   -0.000104460770    0.874985912260    0.374990771840
C    0.000030650130    0.874919112410    0.624987143810
C    0.000028614400    0.874947994770    0.874970745860
C    0.249957240470    0.125048162150    0.125074622910
C    0.249999285120    0.125018649740    0.375076753020
C    0.249844250370    0.124752632430    0.625111834590
C    0.249929281470    0.124873188100    0.875064956030
C    0.249999749180    0.375050183720    0.125045538030
C    0.250602102360    0.375404898770    0.375435080910
C    0.249983456190    0.374783792110    0.625156709440
C    0.249844280870    0.374853027000    0.875189506420
C    0.249847224480    0.625080768300    0.124787396650
C    0.249985242300    0.625122953170    0.374817923960
C    0.250797609780    0.624402441550    0.624433412290
C    0.250197640870    0.624871922370    0.874756917970
C    0.249932230430    0.875035484070    0.124905346180
C    0.249846936500    0.875157430530    0.374884175000
C    0.250197829960    0.874723983380    0.624900622710
C    0.250014185330    0.874838840960    0.874868989800
C    0.499973507110    0.124915353380    0.124939727850
C    0.499963118040    0.125033082850    0.375066900190
C    0.499921021020    0.124923692790    0.625066529560
C    0.499904486690    0.124656320930    0.875317972280
C    0.499963540850    0.375041612120    0.125058607160
C    0.499949511580    0.375462731680    0.375493728310
C    0.498534016670    0.374637925470    0.625260416080
C    0.499952233460    0.374966802240    0.875013146590
C    0.499924191770    0.625037092570    0.124954371130
C    0.498535599890    0.625232371080    0.374666455210
C    0.501884520270    0.624141514510    0.624169249110
C    0.500035826850    0.624916328280    0.874935354640
C    0.499906149560    0.875289549180    0.124686011180
C    0.499953644100    0.874986826700    0.374993746110
C    0.500035531350    0.874908314290    0.624941832040
C    0.500010894290    0.874956749840    0.874983592990
C    0.749976907940    0.124998439260    0.125019138390
C    0.750000382420    0.124949521940    0.375020000070
C    0.749891891700    0.125022089270    0.625017931480
C    0.749943889760    0.125039192170    0.874980355190
C    0.749999833410    0.374998380470    0.124972431370
C    0.749995465680    0.374959191390    0.374985460150
C    0.749211894270    0.375543897000    0.624919784280
C    0.749901753710    0.375018300860    0.874965239130
C    0.749891881350    0.624994350470    0.125047045570
C    0.749212862510    0.624891952630    0.375572059740
C    0.750198341830    0.625160834510    0.625187145450
C    0.750056268620    0.625029653270    0.875094718390
C    0.749943808930    0.874957652440    0.125062183590
C    0.749901281510    0.874942045270    0.375040959790
C    0.750055534750    0.875071767060    0.625050943700
C    0.750022955750    0.875010961480    0.875032398340
C    0.124951944850    0.000014081700    0.124996812550
C    0.124904709530    0.000029140770    0.374992352050
C    0.124962075490   -0.000147158510    0.625011157480
C    0.124976043010   -0.000090742820    0.874982487900
C    0.124991794060    0.250031528850    0.125097364050
C    0.125059139490    0.250110558300    0.375099781730
C    0.124868623500    0.249859863420    0.625088010470
C    0.124913371610    0.249931408510    0.875054148390
C    0.124768105480    0.500059571720    0.124819389610
C    0.125163099450    0.500046547080    0.375059116240
C    0.125217366900    0.499869204370    0.624901977870
C    0.124822568400    0.499887810100    0.875132115640
C    0.124928240030    0.750010886920    0.124929692220
C    0.124892734860    0.750072020830    0.374917126380
C    0.125180882320    0.749762391760    0.624864079110
C    0.125087761260    0.749881340210    0.874845983230
C    0.374935026810    0.000059127160    0.124943825900
C    0.374965902720    0.000010236590    0.374999325670
C    0.374980735070   -0.000124469610    0.625007074010
C    0.374955204580   -0.000172602200    0.875013094250
C    0.374964433330    0.250058103680    0.125074020040
C    0.375179759740    0.250271647260    0.375389062820
C    0.374882692480    0.249577840310    0.625352194750
C    0.374893627980    0.249738560210    0.875273534930
C    0.374971401170    0.500065446650    0.125000294390
C    0.375949511730    0.501192748180    0.375424753410
C    0.376149564530    0.498362776200    0.624279101550
C    0.375063143600    0.499879970170    0.874916562940
C    0.374906637340    0.750189349930    0.124723613260
C    0.374884262870    0.750384014960    0.374625970280
C    0.375660134890    0.749214815940    0.624623133690
C    0.375052946790    0.749821375850    0.874805074740
C    0.624988278690   -0.000013717660    0.125018851000
C    0.624968609470    0.000003128130    0.375021451730
C    0.624980568860   -0.000023566030    0.625015447190
C    0.624997884560   -0.000034321550    0.875023067070
C    0.624971184520    0.249959585190    0.124973064520
C    0.624939349590    0.249883872460    0.375014887870
C    0.624588558600    0.250208494100    0.624871317230
C    0.624956690780    0.250095553290    0.874963942500
C    0.624923459050    0.500009926080    0.125038851450
C    0.624116476030    0.499630816820    0.375451645040
C    0.624182203660    0.501889378370    0.624486627490
C    0.624972512360    0.499991040510    0.875008299280
C    0.624940305690    0.749984316980    0.124969147790
C    0.624736763030    0.749487793050    0.375492776080
C    0.625140536950    0.750264241130    0.625139761180
C    0.625041113990    0.750034198770    0.875068700210
C    0.874964801900   -0.000012628890    0.125020422530
C    0.874949995130   -0.000023573700    0.375016324580
C    0.874975062870   -0.000005100460    0.625019509790
C    0.874985273650    0.000001323430    0.875006838660
C    0.874971398090    0.250005234870    0.125023935340
C    0.875008075080    0.249972893860    0.375026104260
C    0.874763008020    0.250183466550    0.625024362670
C    0.874906386820    0.250010571030    0.874980708860
C    0.875012923060    0.499988463990    0.124965641800
C    0.874825338080    0.500009353570    0.375114333860
C    0.874913804310    0.500015980170    0.624992150150
C    0.875000810990    0.500008142780    0.875024975780
C    0.874903803480    0.749972471870    0.125065164440
C    0.874849483100    0.749909739620    0.375051711120
C    0.875088399510    0.750027059000    0.625037771000
C    0.875042851730    0.749993966730    0.875017153070
C    0.124950749780    0.124972450660    0.000038598190
C    0.124992311260    0.125072036840    0.250055318320
C    0.124766734850    0.124789915020    0.500086327230
C    0.124925798210    0.124899980110    0.750036969900
C    0.124903235910    0.374967624300    0.000056397070
C    0.125059064370    0.375073817540    0.250137198800
C    0.125163310390    0.375031091180    0.500074614990
C    0.124890373420    0.374888015450    0.750101560000
C    0.124963243070    0.624986042610   -0.000116325910
C    0.124870980520    0.625059554450    0.249890241520
C    0.125217120550    0.624872612700    0.499898331520
C    0.125180837060    0.624835586100    0.749792714160
C    0.124977060130    0.874958093130   -0.000064018610
C    0.124916067590    0.875027085840    0.249958497390
C    0.124824217990    0.875102260060    0.499914923080
C    0.125087533670    0.874816186790    0.749907518440
C    0.374933753130    0.124914198910    0.000088282610
C    0.374964611440    0.125048050820    0.250083719680
C    0.374969410910    0.124971003920    0.500094557500
C    0.374903817150    0.124688310280    0.750221695330
C    0.374965457520    0.374973349490    0.000036942120
C    0.375180230510    0.375358169330    0.250302333340
C    0.375948365850    0.375394649480    0.501222926570
C    0.374882375750    0.374595004520    0.750413931370
C    0.374982391390    0.624979773670   -0.000092962540
C    0.374885136470    0.625320590750    0.249609753780
C    0.376150384840    0.624250187130    0.498392287030
C    0.375660224840    0.624593392920    0.749244869410
C    0.374956451740    0.874983462260   -0.000139447000
C    0.374896104960    0.875241762870    0.249771136880
C    0.375063499360    0.874888076100    0.499908148430
C    0.375052609790    0.874772855440    0.749850282100
C    0.624988047120    0.124996102140    0.000009099830
C    0.624971510950    0.124950227300    0.249981948080
C    0.624922568530    0.125013683780    0.500034656760
C    0.624938701790    0.124941805120    0.750010643790
C    0.624968353750    0.374999053870    0.000026090890
C    0.624939677320    0.374988515600    0.249910505130
C    0.624114432090    0.375422964590    0.499659987900
C    0.624735470400    0.375466046410    0.749513989780
C    0.624981442130    0.624992638000    0.000000823510
C    0.624589613720    0.624841069390    0.250239012140
C    0.624183314590    0.624460021510    0.501916065430
C    0.625140982330    0.625113541200    0.750291516700
C    0.624998147520    0.874999110550   -0.000009589890
C    0.624957356450    0.874939875590    0.250120383440
C    0.624972413750    0.874984246100    0.500014686290
C    0.625040866900    0.875044857770    0.750056895890
C    0.874964578790    0.124999675420    0.000008478520
C    0.874971773570    0.125002736460    0.250025593640
C    0.875014020750    0.124941329410    0.500010159150
C    0.874904318420    0.125040745950    0.749995146160
C    0.874949506430    0.374996044360   -0.000001111690
C    0.875007785330    0.375003364670    0.249996444020
C    0.874825751560    0.375087160250    0.500035532530
C    0.874850979120    0.375026837890    0.749934539360
C    0.874975398830    0.624998839720    0.000018221850
C    0.874761111240    0.624998800360    0.250210847290
C    0.874913352380    0.624967121260    0.500041333660
C    0.875088792100    0.625015472420    0.750050120020
C    0.874985420480    0.874985821140    0.000023075310
C    0.874906113320    0.874957530870    0.250032926900
C    0.875000307870    0.875001996220    0.500029197140
C    0.875042559660    0.874995163170    0.750014774810
C    0.187447451740    0.062560404820    0.187524291800
C    0.187417411730    0.062453746790    0.437528742200
C    0.187418507940    0.062309237160    0.687536462120
C    0.187448068380    0.062428641270    0.937518695300
C    0.187535512850    0.312569439760    0.187622624310
C    0.187672378790    0.312552326380    0.437639419820
C    0.187400416030    0.312378018940    0.687592026810
C    0.187387891870    0.312428312070    0.937621849530
C    0.187140464980    0.562510049960    0.187134041400
C    0.187794657020    0.562453186720    0.437465243760
C    0.187798684830    0.562273570690    0.687333427240
C    0.187513098860    0.562430740970    0.937400510940
C    0.187427597740    0.812536115410    0.187422560180
C    0.187189140180    0.812804697470    0.437465576630
C    0.187679740400    0.812236641530    0.687343294490
C    0.187498491660    0.812416026810    0.937368425600
C    0.437449297240    0.062520942950    0.187504505380
C    0.437445686950    0.062488679050    0.437534391780
C    0.437449949660    0.062357903320    0.687565740430
C    0.437476254960    0.062298370990    0.937638127270
C    0.437430243090    0.312588016770    0.187581441810
C    0.437616607120    0.312876819140    0.438051526260
C    0.437717242330    0.311073840090    0.688984163170
C    0.437445685380    0.312420433690    0.937575101980
C    0.437427124280    0.562597902580    0.187441051340
C    0.438376739470    0.561532974280    0.686469232000
C    0.437483724480    0.562447391620    0.937453165610
C    0.437496310430    0.813063005780    0.186925797880
C    0.437465087660    0.812505493040    0.437363764990
C    0.437614903730    0.812235040780    0.687313812410
C    0.437496986020    0.812421039990    0.937379079670
C    0.687479774920    0.062475277270    0.187509926390
C    0.687457673040    0.062498630170    0.437539461260
C    0.687474971900    0.062470209170    0.687545641500
C    0.687474110520    0.062505999410    0.937504373780
C    0.687473296720    0.312497163370    0.187450159030
C    0.688012971270    0.311887521940    0.437668449870
C    0.687096813090    0.312731509920    0.687344591270
C    0.687459850890    0.312500251130    0.937509808320
C    0.687367145900    0.562556050610    0.187543934640
C    0.686376319420    0.561964626700    0.438381709800
C    0.687875364950    0.562723294560    0.688011112820
C    0.687491167100    0.562495362520    0.937527129570
C    0.687399668760    0.812436007520    0.187582493430
C    0.687396978140    0.812417580790    0.437552776650
C    0.687606239160    0.812652393180    0.687609474390
C    0.687522386440    0.812524363260    0.937539518250
C    0.937463548840    0.062502712450    0.187521414920
C    0.937466889440    0.062472118910    0.437533417370
C    0.937433310400    0.062496183670    0.687509635580
C    0.937467727040    0.062489048230    0.937511244080
C    0.937493377080    0.312503970920    0.187527998190
C    0.937433725850    0.312539278310    0.437546432760
C    0.937393796150    0.312533506440    0.687494030180
C    0.937421197820    0.312494852680    0.937502872680
C    0.937375035910    0.562490554210    0.187596307040
C    0.937447217500    0.562487721740    0.437533896470
C    0.937520748100    0.562480794220    0.687481321000
C    0.937475261820    0.562487175920    0.937485422960
C    0.937410671050    0.812482737640    0.187518975130
C    0.937432521900    0.812438491240    0.437524245540
C    0.937572019750    0.812478614920    0.687509994060
C    0.937513233720    0.812481832830    0.937501673840
C    0.062458026110    0.062493891530    0.062516791500
C    0.062457928640    0.062543699340    0.312523621330
C    0.062335033840    0.062360601800    0.562505346260
C    0.062457313600    0.062435396000    0.812509051530
C    0.062456856780    0.312500896990    0.062568772940
C    0.062507733100    0.312535256830    0.312560054550
C    0.062511908080    0.312494414820    0.562525208920
C    0.062385205120    0.312450010150    0.812537833610
C    0.062336237180    0.562480677060    0.062389557620
C    0.062511931750    0.562499484310    0.312521114020
C    0.062632670280    0.562432104080    0.562459398970
C    0.062536587270    0.562433548910    0.812438033780
C    0.062458992330    0.812485462380    0.062461525570
C    0.062387442330    0.812511212900    0.312476147870
C    0.062536986990    0.812410572450    0.562458973000
C    0.062569572780    0.812400214450    0.812426063750
C    0.312442754960    0.062507090120    0.062535370190
C    0.312437439420    0.062523134030    0.312517671420
C    0.312442576290    0.062395984760    0.562538863250
C    0.312431538310    0.062271579080    0.812571804140
C    0.312436941330    0.312491732160    0.062549643350
C    0.312706024000    0.312776725780    0.312807598970
C    0.311856927190    0.311580521280    0.562498181600
C    0.312389412000    0.312283215630    0.812821446250
C    0.312444586600    0.562510661980    0.062427104030
C    0.311857767740    0.562466638380    0.311611058890
C    0.313794100440    0.561758580760    0.561788395110
C    0.312727131370    0.562224160400    0.812205447180
C    0.312434595730    0.812540647780    0.062307248920
C    0.312392281520    0.812788785910    0.312316604380
C    0.312727478230    0.812174062490    0.562254088110
C    0.312573264370    0.812268380710    0.812299687180
C    0.562467604030    0.062446391010    0.062470063180
C    0.562450767800    0.062512475310    0.312526432250
C    0.562457342600    0.062469397200    0.562550077470
C    0.562468638220    0.062383196840    0.812582074650
C    0.562450537340    0.312503115130    0.062536094420
C    0.562331871600    0.311942597120    0.311970575850
C    0.561880281300    0.312765730000    0.562596403280
C    0.562329988150    0.312505704660    0.812457757180
C    0.562458910630    0.562525233400    0.062495197400
C    0.561881661250    0.562565648740    0.312796206710
C    0.562502833620    0.562416957570    0.812523949930
C    0.562470331040    0.812555309120    0.062411755540
C    0.562331704890    0.812431713560    0.312532281130
C    0.562503275560    0.812497890080    0.562442830150
C    0.562551244920    0.812524586660    0.812548999790
C    0.812473598080    0.062498085550    0.062518795640
C    0.812472764580    0.062472076260    0.312519472790
C    0.812459601890    0.062500069390    0.562529710950
C    0.812458851080    0.062525589550    0.812505918400
C    0.812472263960    0.312499197790    0.062493791700
C    0.812531775140    0.312486334870    0.312509829580
C    0.812132657770    0.312752046520    0.562467724840
C    0.812367831670    0.312532061400    0.812449299290
C    0.812459538330    0.562508465670    0.062523411910
C    0.812131843690    0.562440183850    0.312780760580
C    0.812412085100    0.562515851220    0.562541920690
C    0.812582741460    0.562535632000    0.812607879110
C    0.812458976210    0.812484315300    0.062548255100
C    0.812366664480    0.812424915160    0.312556064940
C    0.812582198890    0.812584767350    0.562557457370
C    0.812560978840    0.812529635750    0.812550929120
C    0.062485858840    0.187530670040    0.187553846890
C    0.062455691740    0.187508279000    0.437548168660
C    0.062380394720    0.187437760520    0.687539086390
C    0.062437633760    0.187468724890    0.937534917020
C    0.062455490410    0.437523772860    0.187534227430
C    0.062583243530    0.437509335950    0.437535597160
C    0.062546855190    0.437457276380    0.687476926400
C    0.062343194950    0.437488010500    0.937576909420
C    0.062382399360    0.687513528280    0.187465910870
C    0.062547102510    0.687450193110    0.437483758470
C    0.062612435580    0.687396646850    0.687423891970
C    0.062519897760    0.687451963670    0.937404683010
C    0.062439564520    0.937510613460    0.187492656310
C    0.062344845940    0.937549573800    0.437512477880
C    0.062519423920    0.937376325550    0.687475788000
C    0.062484159640    0.937454138280    0.937477858260
C    0.312480635090    0.187591382460    0.187617516610
C    0.312431423940    0.187483916560    0.437648016850
C    0.312400151980    0.187157827690    0.687677149820
C    0.312409699380    0.187368085990    0.937659892320
C    0.312432801570    0.437617848720    0.187513065550
C    0.313646431740    0.437995370900    0.438025621010
C    0.311910269020    0.437462792640    0.688413445510
C    0.312456978220    0.437436409980    0.937506973390
C    0.312403402360    0.687643887690    0.187193427640
C    0.311910906170    0.688383467490    0.437493744460
C    0.312960440500    0.687002537450    0.687033666270
C    0.312519187050    0.687418059360    0.937343974290
C    0.312412817190    0.937628771280    0.187400161670
C    0.312457978840    0.937478694940    0.437463683920
C    0.312518519370    0.937310510720    0.687445822420
C    0.312465675420    0.937390981700    0.937421408110
C    0.562439200310    0.187338582170    0.187362586820
C    0.562390086170    0.187518923250    0.437620478840
C    0.562357519850    0.187363346610    0.687683701320
C    0.562450044410    0.187459067190    0.937548906280
C    0.562391257950    0.437593507530    0.187545449260
C    0.561696352540    0.437969018790    0.686747847910
C    0.562471110980    0.437461471640    0.937519915810
C    0.562360863730    0.687653504600    0.187394261930
C    0.561698310650    0.686721466170    0.437996395130
C    0.562777198980    0.687810383410    0.687838398730
C    0.562497833590    0.687478398180    0.937476127730
C    0.562451255080    0.937524197110    0.187484313810
C    0.562471522580    0.937495757880    0.437485334660
C    0.562497266090    0.937450420420    0.687502044090
C    0.562493185920    0.937470415970    0.937495669260
C    0.812469317140    0.187504254470    0.187525017300
C    0.812615046420    0.187346134610    0.437556372610
C    0.812338102100    0.187596619950    0.687487577530
C    0.812447990400    0.187507494790    0.937493263300
C    0.812613909890    0.437533075010    0.187371459050
C    0.812307732470    0.437531091860    0.437558466340
C    0.812280735010    0.437603320730    0.687460274900
C    0.812449186120    0.437506060280    0.937492248910
C    0.812336766620    0.687463133220    0.187622810200
C    0.812279603060    0.687434264780    0.437629879980
C    0.812663263700    0.687590646980    0.687613958300
C    0.812529167580    0.687516274940    0.937549708750
C    0.812448206330    0.937471367890    0.187528836770
C    0.812449094670    0.937469870250    0.437526755120
C    0.812528628320    0.937527300920    0.687536880250
C    0.812496755850    0.937504574120    0.937525663270
C    0.187446202060    0.187498694430    0.062587146510
C    0.187535244860    0.187595863210    0.312595204590
C    0.187139277480    0.187102383430    0.562540420390
C    0.187424068050    0.187390765990    0.812565751070