&CONTROL
calculation = 'relax'
restart_mode = 'from_scratch'
prefix = 'pwscf'
pseudo_dir = './'
outdir = './'
tprnfor = .TRUE.
verbosity = 'high'
forc_conv_thr = 0.000039
/
&SYSTEM
ibrav = 0
nat = 511
ntyp = 2
ecutwfc = 80
tot_charge = -1
nspin = 2
tot_magnetization = 2
nbnd = 1032
/
&ELECTRONS
electron_maxstep = 600
conv_thr = 1.0d-10
mixing_mode = 'plain'
mixing_beta = 0.7
diagonalization = 'david'
diago_full_acc = .TRUE.
startingpot = 'atomic'
startingwfc = 'atomic+random'
/
&IONS
ion_dynamics='bfgs'
ion_positions='default'
/
ATOMIC_SPECIES
C  12.011   C_ONCV_PBE-1.2.upf
N  14.0067  N_ONCV_PBE-1.2.upf
CELL_PARAMETERS angstrom
14.272  0.0000  0.0000
0.0000  14.272  0.0000
0.0000  0.0000  14.272
K_POINTS gamma
ATOMIC_POSITIONS crystal
C                0.0000061711        0.0000061731        0.0000061821
C               -0.0000361727       -0.0000361547        0.2500144191
C               -0.0000039184       -0.0000039044        0.5000058920
C                0.0000492084        0.0000492224        0.7499946532
C               -0.0000361717        0.2500144041       -0.0000361617
C               -0.0000761683        0.2499585755        0.2499585845
C               -0.0000983206        0.2500190366        0.4999778212
C               -0.0000555360        0.2500336696        0.7499731076
C               -0.0000039184        0.5000058760       -0.0000039084
C               -0.0000983296        0.4999778092        0.2500190426
C               -0.0000265552        0.5000006103        0.5000006153
C                0.0000560231        0.5000260570        0.7499979360
C                0.0000492124        0.7499946552        0.0000492254
C               -0.0000555420        0.7499731196        0.2500336766
C                0.0000560111        0.7499979400        0.5000260690
C                0.0001541893        0.7500555090        0.7500555130
C                0.2500144101       -0.0000361587       -0.0000361687
C                0.2499585795       -0.0000761553        0.2499585815
C                0.2500190396       -0.0000982936        0.4999778282
C                0.2500336716       -0.0000555200        0.7499731206
C                0.2499585785        0.2499585715       -0.0000761623
C                0.2499848351        0.2499848261        0.2499848361
C                0.2495382711        0.2495382701        0.4999875978
C                0.2499974839        0.2499974759        0.7499176964
C                0.2500190426        0.4999778052       -0.0000983186
C                0.2495382591        0.4999875898        0.2495382521
C                0.2502877206        0.4998301594        0.4998301474
C                0.2499265075        0.4998775830        0.7500272178
C                0.2500336736        0.7499731166       -0.0000555340
C                0.2499974759        0.7499177044        0.2499974689
C                0.2499264965        0.7500272208        0.4998775950
C                0.2502864887        0.7498199270        0.7498199280
C                0.5000058960       -0.0000039074       -0.0000039114
C                0.4999778392       -0.0000982956        0.2500190396
C                0.5000006273       -0.0000265222        0.5000006103
C                0.5000260750        0.0000560411        0.7499979350
C                0.4999778262        0.2500190386       -0.0000983116
C                0.4999876038        0.2495382671        0.2495382611
C                0.4998301654        0.2502877326        0.4998301574
C                0.4998776060        0.2499265065        0.7500272108
C                0.5000006223        0.5000006083       -0.0000265492
C                0.4998301554        0.4998301614        0.2502877066
C                0.5001170865        0.5001170515        0.7496081177
C                0.5000260820        0.7499979340        0.0000560251
C                0.4998776060        0.7500272228        0.2499264935
C                0.5001170815        0.7496081187        0.5001170665
C                0.5003084923        0.7504874476        0.7504874626
C                0.7499946582        0.0000492174        0.0000492254
C                0.7499731226       -0.0000555260        0.2500336776
C                0.7499979380        0.0000560421        0.5000260720
C                0.7500555050        0.0001541973        0.7500555100
C                0.7499731126        0.2500336706       -0.0000555290
C                0.7499177004        0.2499974749        0.2499974819
C                0.7500272078        0.2499265085        0.4998775950
C                0.7498199230        0.2502864917        0.7498199230
C                0.7499979320        0.5000260610        0.0000560321
C                0.7500272078        0.4998775930        0.2499265015
C                0.7496081037        0.5001170585        0.5001170755
C                0.7504874456        0.5003084643        0.7504874546
C                0.7500555100        0.7500555070        0.0001542063
C                0.7498199300        0.7498199290        0.2502864927
C                0.7504874496        0.7504874506        0.5003084793
C                0.7502389370        0.7502389300        0.7502389450
C               -0.0000335614        0.1249980181        0.1249980281
C               -0.0000619764        0.1249760174        0.3749936720
C               -0.0000632146        0.1250664132        0.6249782766
C               -0.0000127405        0.1250480114        0.8749627356
C               -0.0000619754        0.3749936540        0.1249760164
C               -0.0001143145        0.3749905547        0.3749905667
C               -0.0000348289        0.3750237135        0.6249776827
C               -0.0000230463        0.3750318473        0.8749537547
C               -0.0000632206        0.6249782786        0.1250664112
C               -0.0000348409        0.6249776877        0.3750237205
C                0.0000836683        0.6250197047        0.6250197117
C                0.0001165778        0.6250153438        0.8750363556
C               -0.0000127415        0.8749627426        0.1250480194
C               -0.0000230543        0.8749537607        0.3750318633
C                0.0001165728        0.8750363576        0.6250153478
C                0.0000840778        0.8750142363        0.8750142443
C                0.2499654366        0.1249748685        0.1249748725
C                0.2499525813        0.1249073443        0.3749694045
C                0.2499283607        0.1249241125        0.6249491081
C                0.2499894919        0.1249969848        0.8749282335
C                0.2499525743        0.3749693825        0.1249073333
C                0.2500459479        0.3750450153        0.3750450163
C                0.2499668732        0.3749179407        0.6248487342
C                0.2499743648        0.3749945649        0.8749225711
C                0.2499283577        0.6249490991        0.1249240865
C                0.2499668612        0.6248487372        0.3749179387
C                0.2504241783        0.6246410604        0.6246410634
C                0.2502467048        0.6249523153        0.8747579815
C                0.2499894939        0.8749282405        0.1249969758
C                0.2499743558        0.8749225821        0.3749945819
C                0.2502466958        0.8747579915        0.6249523303
C                0.2500703884        0.8749255633        0.8749255553
C                0.4999944121        0.1248419592        0.1248419542
C                0.4999466482        0.1249956135        0.3749791334
C                0.4999486085        0.1251093669        0.6248968581
C                0.4999725341        0.1250013933        0.8749922396
C                0.4999466382        0.3749791284        0.1249955905
C                0.5002575891        0.3750680263        0.3750680173
C                0.4992615595        0.3759650927        0.6236248392
C                0.4999964082        0.3751394667        0.8747808782
C                0.4999486135        0.6248968611        0.1251093349
C                0.4992615445        0.6236248472        0.3759650847
C                0.5029911514        0.6250001382        0.6250001672
C                0.5001052756        0.6250157670        0.8749754142
C                0.4999725461        0.8749922466        0.1250013813
C                0.4999964152        0.8747808942        0.3751394697
C                0.5001052726        0.8749754202        0.6250157770
C                0.5000869755        0.8751454479        0.8751454499
C                0.7499731740        0.1250124823        0.1250124853
C                0.7499817873        0.1249911871        0.3749995611
C                0.7499081105        0.1251584633        0.6249398263
C                0.7499760189        0.1251542242        0.8749335109
C                0.7499817773        0.3749995541        0.1249911801
C                0.7498349051        0.3750260448        0.3750260458
C                0.7492313473        0.3757645825        0.6248004338
C                0.7499293613        0.3751163275        0.8749063051
C                0.7499081105        0.6249398333        0.1251584563
C                0.7492313493        0.6248004288        0.3757645855
C                0.7505972846        0.6254138733        0.6254138893
C                0.7502102122        0.6251294581        0.8752465931
C                0.7499760269        0.8749335129        0.1251542262
C                0.7499293643        0.8749063091        0.3751163355
C                0.7502102112        0.8752465861        0.6251294701
C                0.7500919900        0.8751114615        0.8751114735
C                0.1249980141       -0.0000335534        0.1249980231
C                0.1249760074       -0.0000619564        0.3749936750
C                0.1250664022       -0.0000631966        0.6249782846
C                0.1250480074       -0.0000127295        0.8749627346
C                0.1249748675        0.2499654316        0.1249748755
C                0.1249073363        0.2499525693        0.3749694005
C                0.1249241005        0.2499283637        0.6249491041
C                0.1249969798        0.2499894899        0.8749282345
C                0.1248419432        0.4999943891        0.1248419492
C                0.1249955855        0.4999466242        0.3749791214
C                0.1251093459        0.4999485945        0.6248968571
C                0.1250013853        0.4999725121        0.8749922416
C                0.1250124693        0.7499731760        0.1250124733
C                0.1249911641        0.7499817903        0.3749995611
C                0.1251584383        0.7499081175        0.6249398373
C                0.1251542202        0.7499760189        0.8749335129
C                0.3749936740       -0.0000619644        0.1249760104
C                0.3749905747       -0.0001142865        0.3749905667
C                0.3750237235       -0.0000348019        0.6249776877
C                0.3750318653       -0.0000230363        0.8749537527
C                0.3749693995        0.2499525683        0.1249073403
C                0.3750450353        0.2500459539        0.3750450243
C                0.3749179587        0.2499668722        0.6248487342
C                0.3749945829        0.2499743558        0.8749225721
C                0.3749791314        0.4999466262        0.1249955845
C                0.3750680373        0.5002576071        0.3750680193
C                0.3759651157        0.4992615245        0.6236248322
C                0.3751394897        0.4999963862        0.8747808812
C                0.3749995711        0.7499817873        0.1249911651
C                0.3750260528        0.7498349251        0.3750260378
C                0.3757645925        0.7492313563        0.6248004458
C                0.3751163435        0.7499293583        0.8749063021
C                0.6249782956       -0.0000632046        0.1250664112
C                0.6249776987       -0.0000348049        0.3750237175
C                0.6250197207        0.0000836913        0.6250197117
C                0.6250153538        0.0001165858        0.8750363556
C                0.6249491121        0.2499283607        0.1249240985
C                0.6248487392        0.2499668742        0.3749179467
C                0.6246410624        0.2504241983        0.6246410584
C                0.6249523263        0.2502467008        0.8747579775
C                0.6248968641        0.4999485995        0.1251093459
C                0.6236248302        0.4992615355        0.3759650977
C                0.6250001622        0.5029911144        0.6250001622
C                0.6250157810        0.5001052486        0.8749754142
C                0.6249398463        0.7499081155        0.1251584483
C                0.6248004478        0.7492313563        0.3757645805
C                0.6254138963        0.7505972796        0.6254138903
C                0.6251294791        0.7502102072        0.8752465941
C                0.8749627336       -0.0000127335        0.1250480234
C                0.8749537497       -0.0000230343        0.3750318663
C                0.8750363466        0.0001165928        0.6250153478
C                0.8750142343        0.0000840778        0.8750142453
C                0.8749282365        0.2499894889        0.1249969878
C                0.8749225641        0.2499743578        0.3749945799
C                0.8747579745        0.2502467008        0.6249523163
C                0.8749255503        0.2500703804        0.8749255543
C                0.8749922326        0.4999725171        0.1250013893
C                0.8747808672        0.4999963892        0.3751394777
C                0.8749754042        0.5001052516        0.6250157780
C                0.8751454419        0.5000869545        0.8751454479
C                0.8749335059        0.7499760189        0.1251542312
C                0.8749062951        0.7499293643        0.3751163375
C                0.8752465771        0.7502102092        0.6251294671
C                0.8751114625        0.7500919880        0.8751114745
C                0.1249980181        0.1249980171       -0.0000335584
C                0.1249748645        0.1249748715        0.2499654446
C                0.1248419502        0.1248419632        0.4999944111
C                0.1250124753        0.1250124863        0.7499731660
C                0.1249760114        0.3749936500       -0.0000619674
C                0.1249073303        0.3749693825        0.2499525743
C                0.1249955925        0.3749791254        0.4999466302
C                0.1249911801        0.3749995541        0.7499817813
C                0.1250664032        0.6249782746       -0.0000632106
C                0.1249240835        0.6249491041        0.2499283587
C                0.1251093349        0.6248968601        0.4999486035
C                0.1251584483        0.6249398283        0.7499081135
C                0.1250480104        0.8749627436       -0.0000127325
C                0.1249969738        0.8749282435        0.2499894949
C                0.1250013743        0.8749922536        0.4999725331
C                0.1251542132        0.8749335169        0.7499760209
C                0.3749936650        0.1249760124       -0.0000619694
C                0.3749694085        0.1249073413        0.2499525793
C                0.3749791404        0.1249956145        0.4999466342
C                0.3749995671        0.1249911891        0.7499817813
C                0.3749905687        0.3749905557       -0.0001143035
C                0.3750450243        0.3750450153        0.2500459399
C                0.3750680373        0.3750680273        0.5002575841
C                0.3750260618        0.3750260378        0.7498349121
C                0.3750237285        0.6249776777       -0.0000348329
C                0.3749179537        0.6248487382        0.2499668462
C                0.3759651117        0.6236248382        0.4992615255
C                0.3757645965        0.6248004278        0.7492313603
C                0.3750318683        0.8749537587       -0.0000230443
C                0.3749945919        0.8749225821        0.2499743558
C                0.3751394797        0.8747808952        0.4999964022
C                0.3751163395        0.8749063091        0.7499293633
C                0.6249782866        0.1250664102       -0.0000632076
C                0.6249491211        0.1249241085        0.2499283657
C                0.6248968671        0.1251093659        0.4999486025
C                0.6249398363        0.1251584623        0.7499081075
C                0.6249776867        0.3750237165       -0.0000348249
C                0.6248487342        0.3749179447        0.2499668612
C                0.6236248352        0.3759651007        0.4992615455
C                0.6248004428        0.3757645775        0.7492313543
C                0.6250197207        0.6250197077        0.0000836813
C                0.6246410674        0.6246410664        0.2504241743
C                0.6250001592        0.6250001352        0.5029911404
C                0.6254138933        0.6254138713        0.7505972966
C                0.6250153608        0.8750363506        0.0001165878
C                0.6249523383        0.8747579855        0.2502466968
C                0.6250157840        0.8749754182        0.5001052566
C                0.6251294751        0.8752465851        0.7502102182
C                0.8749627336        0.1250480104       -0.0000127265
C                0.8749282365        0.1249969868        0.2499895029
C                0.8749922376        0.1250013923        0.4999725291
C                0.8749335019        0.1251542262        0.7499760149
C                0.8749537497        0.3750318503       -0.0000230353
C                0.8749225601        0.3749945699        0.2499743618
C                0.8747808692        0.3751394687        0.4999964012
C                0.8749062991        0.3751163265        0.7499293613
C                0.8750363456        0.6250153438        0.0001165908
C                0.8747579715        0.6249523193        0.2502467048
C                0.8749754002        0.6250157710        0.5001052646
C                0.8752465781        0.6251294581        0.7502102142
C                0.8750142383        0.8750142363        0.0000840918
C                0.8749255513        0.8749255613        0.2500703944
C                0.8751454399        0.8751454529        0.5000869665
C                0.8751114605        0.8751114635        0.7500919960
C                0.1874709342        0.0624715855        0.1874709382
C                0.1874457704        0.0624101979        0.4374829620
C                0.1875144935        0.0624597218        0.6874734091
C                0.1875132447        0.0624985460        0.9374490920
C                0.1874499444        0.3124551108        0.1874499454
C                0.1873895589        0.3123828666        0.4374205927
C                0.1874535465        0.3124992518        0.6874200122
C                0.1874777315        0.3124857132        0.9374235356
C                0.1872166496        0.5623878068        0.1872166486
C                0.1875695452        0.5623562830        0.4374800670
C                0.1876668261        0.5624246352        0.6873829172
C                0.1876055485        0.5624592298        0.9373588360
C                0.1875053718        0.8124345382        0.1875053728
C                0.1874197830        0.8125494741        0.4375424684
C                0.1876961863        0.8123641116        0.6874360645
C                0.1875719234        0.8124687444        0.9374436463
C                0.4374829640        0.0624101889        0.1874457724
C                0.4374768208        0.0624637630        0.4374768138
C                0.4375239748        0.0625427189        0.6874588161
C                0.4375293468        0.0624817490        0.9374716394
C                0.4374206027        0.3123828656        0.1873895509
C                0.4374265958        0.3126690715        0.4374265768
C                0.4376757055        0.3122467992        0.6876673741
C                0.4375118486        0.3125307359        0.9373516622
C                0.4374800780        0.5623562830        0.1875695362
C                0.4387121229        0.5619395834        0.6862636429
C                0.4375541912        0.5624978387        0.9374212197
C                0.4375424744        0.8125494681        0.1874197870
C                0.4375836383        0.8122493343        0.4375836343
C                0.4377404551        0.8123826421        0.6875033030
C                0.4375754908        0.8124912957        0.9374903246
C                0.6874734201        0.0624597138        0.1875144985
C                0.6874588271        0.0625427159        0.4375239688
C                0.6874981787        0.0626128091        0.6874981677
C                0.6874946969        0.0626061031        0.9374871918
C                0.6874200192        0.3124992518        0.1874535465
C                0.6876673731        0.3122468032        0.4376756925
C                0.6871747119        0.3129348412        0.6871747109
C                0.6874649426        0.3125856223        0.9374218093
C                0.6873829152        0.5624246422        0.1876668201
C                0.6862636339        0.5619395834        0.4387121129
C                0.6885454615        0.5628883434        0.6885454675
C                0.6875541113        0.5625548291        0.9375671461
C                0.6874360715        0.8123641086        0.1876961873
C                0.6875033000        0.8123826451        0.4377404381
C                0.6877634798        0.8128985323        0.6877634798
C                0.6875834650        0.8126183759        0.9376688881
C                0.9374490880        0.0624985470        0.1875132587
C                0.9374716344        0.0624817530        0.4375293458
C                0.9374871818        0.0626061051        0.6874946869
C                0.9374941036        0.0625539749        0.9374941096
C                0.9374235296        0.3124857212        0.1874777395
C                0.9373516542        0.3125307339        0.4375118516
C                0.9374217993        0.3125856173        0.6874649416
C                0.9374498995        0.3125415035        0.9374499125
C                0.9373588280        0.5624592348        0.1876055515
C                0.9374212097        0.5624978427        0.4375541782
C                0.9375671351        0.5625548291        0.6875541103
C                0.9375800307        0.5625113607        0.9375800447
C                0.9374436363        0.8124687484        0.1875719244
C                0.9374903116        0.8124913027        0.4375754778
C                0.9376688771        0.8126183769        0.6875834550
C                0.9375636472        0.8125391321        0.9375636552
C                0.0624988743        0.0624988803        0.0624988813
C                0.0624708540        0.0624708700        0.3124934639
C                0.0624478861        0.0624478991        0.5624583401
C                0.0625370147        0.0625370247        0.8124806201
C                0.0624708580        0.3124934489        0.0624708660
C                0.0623821628        0.3124506699        0.3124506899
C                0.0624597154        0.3124956225        0.5624467306
C                0.0624820419        0.3125192178        0.8124591808
C                0.0624478811        0.5624583381        0.0624478931
C                0.0624597064        0.5624467306        0.3124956295
C                0.0625660438        0.5624748892        0.5624749032
C                0.0625982215        0.5624968047        0.8124834925
C                0.0625370107        0.8124806411        0.0625370207
C                0.0624820319        0.8124592018        0.3125192188
C                0.0625982155        0.8124834935        0.5624968127
C                0.0626512573        0.8125040602        0.8125040642
C                0.3124934529        0.0624708600        0.0624708600
C                0.3124506779        0.0623821758        0.3124506749
C                0.3124956345        0.0624597434        0.5624467286
C                0.3125192298        0.0624820549        0.8124591838
C                0.3124506839        0.3124506659        0.0623821668
C                0.3125080962        0.3125080812        0.3125080852
C                0.3117887928        0.3117887948        0.5620775028
C                0.3125210437        0.3125210287        0.8124179244
C                0.3124956325        0.5624467246        0.0624597134
C                0.3117887878        0.5620775008        0.3117887748
C                0.3130711243        0.5620981622        0.5620981762
C                0.3128429782        0.5623947692        0.8121031255
C                0.3125192238        0.8124591948        0.0624820419
C                0.3125210307        0.8124179454        0.3125210297
C                0.3128429782        0.8121031275        0.5623947882
C                0.3126177536        0.8124054460        0.8124054520
C                0.5624583481        0.0624478941        0.0624478951
C                0.5624467436        0.0624597384        0.3124956335
C                0.5624749162        0.0625660768        0.5624749022
C                0.5624968247        0.0625982385        0.8124834935
C                0.5624467376        0.3124956235        0.0624597164
C                0.5620775128        0.3117887938        0.3117887828
C                0.5620981642        0.3130711313        0.5620981542
C                0.5623947862        0.3128429712        0.8121031205
C                0.5624749122        0.5624748912        0.0625660488
C                0.5620981802        0.5620981622        0.3130711053
C                0.5626141866        0.5626141656        0.8125210287
C                0.5624968257        0.8124834865        0.0625982285
C                0.5623947942        0.8121031245        0.3128429722
C                0.5626141906        0.8125210297        0.5626141846
C                0.5626106217        0.8128519464        0.8128519554
C                0.8124806271        0.0625370207        0.0625370307
C                0.8124591878        0.0624820499        0.3125192368
C                0.8124834895        0.0625982375        0.5624968147
C                0.8125040612        0.0626512613        0.8125040632
C                0.8124591838        0.3125192208        0.0624820559
C                0.8124179254        0.3125210327        0.3125210447
C                0.8121031145        0.3128429692        0.5623947832
C                0.8124054430        0.3126177376        0.8124054500
C                0.8124834875        0.5624968087        0.0625982315
C                0.8121031205        0.5623947742        0.3128429702
C                0.8125210147        0.5626141686        0.5626141756
C                0.8128519414        0.5626105957        0.8128519524
C                0.8125040642        0.8125040592        0.0626512653
C                0.8124054450        0.8124054520        0.3126177466
C                0.8128519454        0.8128519494        0.5626106057
C                0.8126564033        0.8126563983        0.8126564073
C                0.0624715795        0.1874709412        0.1874709462
C                0.0624101759        0.1874457734        0.4374829670
C                0.0624597088        0.1875144895        0.6874734051
C                0.0624985420        0.1875132427        0.9374490950
C                0.0624101759        0.4374829540        0.1874457814
C                0.0624637310        0.4374768038        0.4374768148
C                0.0625426939        0.4375239478        0.6874588201
C                0.0624817400        0.4375293298        0.9374716454
C                0.0624596978        0.6874734231        0.1875144865
C                0.0625426849        0.6874588241        0.4375239608
C                0.0626127861        0.6874981577        0.6874981717
C                0.0626060951        0.6874946869        0.9374871898
C                0.0624985320        0.9374491080        0.1875132487
C                0.0624817340        0.9374716534        0.4375293368
C                0.0626060961        0.9374871908        0.6874946849
C                0.0625539689        0.9374941106        0.9374941046
C                0.3124551238        0.1874499394        0.1874499434
C                0.3123828716        0.1873895699        0.4374205887
C                0.3124992668        0.1874535555        0.6874200052
C                0.3124857252        0.1874777285        0.9374235326
C                0.3123828806        0.4374205847        0.1873895489
C                0.3126690635        0.4374265818        0.4374265848
C                0.3122467972        0.4376756985        0.6876673801
C                0.3125307479        0.4375118306        0.9373516592
C                0.3124992518        0.6874200212        0.1874535285
C                0.3122467922        0.6876673881        0.4376757085
C                0.3129348512        0.6871747019        0.6871747179
C                0.3125856323        0.6874649396        0.9374218063
C                0.3124857192        0.9374235476        0.1874777235
C                0.3125307389        0.9373516862        0.4375118466
C                0.3125856353        0.9374218203        0.6874649436
C                0.3125415145        0.9374499115        0.9374499045
C                0.5623878218        0.1872166596        0.1872166536
C                0.5623562900        0.1875695762        0.4374800690
C                0.5624246572        0.1876668411        0.6873829102
C                0.5624592448        0.1876055495        0.9373588370