&CONTROL
calculation = 'scf'
restart_mode = 'from_scratch'
prefix = 'pwscf'
pseudo_dir = './'
outdir = './'
tprnfor = .TRUE.
verbosity = 'high'
forc_conv_thr = 0.000039
/
&SYSTEM
ibrav = 0
nat = 511
ntyp = 2
ecutwfc = 80
tot_charge = -1
nspin = 2
tot_magnetization = 2
nbnd = 1032
/
&ELECTRONS
electron_maxstep = 600
conv_thr = 1.0d-10
mixing_mode = 'plain'
mixing_beta = 0.7
diagonalization = 'david'
diago_full_acc = .TRUE.
startingpot = 'atomic'
startingwfc = 'atomic+random'
/
&IONS
ion_dynamics='bfgs'
ion_positions='default'
/
ATOMIC_SPECIES
C  12.011   C_ONCV_PBE-1.2.upf
N  14.0067  N_ONCV_PBE-1.2.upf
CELL_PARAMETERS angstrom
14.272  0.0000  0.0000
0.0000  14.272  0.0000
0.0000  0.0000  14.272
K_POINTS gamma
ATOMIC_POSITIONS crystal
C   -0.000019884130   -0.000013763290    0.000003182770
C   -0.000051607880   -0.000004891690    0.250014044640
C   -0.000094348170   -0.000033684560    0.500007699290
C    0.000007301870   -0.000024453140    0.749995069280
C   -0.000052348740    0.249997275560    0.000013086340
C   -0.000023662010    0.250010573340    0.250028117200
C   -0.000071576950    0.250041115700    0.500028320000
C   -0.000109683230    0.249990989390    0.750007422190
C   -0.000094419780    0.499990549810   -0.000013543050
C   -0.000071950160    0.500009931740    0.250060710010
C    0.000015600600    0.499990303770    0.500009856410
C    0.000027184010    0.499974075300    0.749960513150
C    0.000007688350    0.749978101180   -0.000004972570
C   -0.000109087790    0.749988367870    0.250010665270
C    0.000027151780    0.749941103070    0.499992627360
C    0.000124160200    0.749958925880    0.749977746720
C    0.249968681310   -0.000048302480   -0.000026825420
C    0.249925806290    0.000036963990    0.249964887750
C    0.249987316420   -0.000085194490    0.499994336610
C    0.249984619710   -0.000176209580    0.749990354420
C    0.249924197320    0.249943137780    0.000059446800
C    0.250077029890    0.250134381060    0.250156019590
C    0.249549879260    0.249486692830    0.500212962100
C    0.249945689290    0.249874974920    0.750066769110
C    0.249987654020    0.499974053160   -0.000062696360
C    0.249550029520    0.500188968180    0.249509885430
C    0.250704503070    0.499879200210    0.499904040240
C    0.249746287610    0.499677263900    0.750301529600
C    0.249986050200    0.749968376510   -0.000149241660
C    0.249948382170    0.750040991770    0.249902082700
C    0.249746073610    0.750277317990    0.499701308300
C    0.250316395650    0.749671117790    0.749696064690
C    0.499968785880   -0.000037564090   -0.000016230410
C    0.499963736400   -0.000008255150    0.250010461080
C    0.499981587640   -0.000029952640    0.500010402520
C    0.499993398950   -0.000066613810    0.750009127640
C    0.499963146390    0.249991021500    0.000011366370
C    0.499943768400    0.249698064210    0.249718909600
C    0.499866528160    0.250232398950    0.500054540510
C    0.499770017930    0.249334272280    0.750656293240
C    0.499982104910    0.499991421630   -0.000010105310
C    0.499867667280    0.500030374630    0.250256232520
C    0.500051739040    0.499919317240    0.749715992560
C    0.499994495500    0.749988447520   -0.000043421940
C    0.499771897430    0.750634868650    0.249356182930
C    0.500052616950    0.749694324710    0.499941405060
C    0.500155375160    0.750117539170    0.750138605900
C    0.749985034670    0.000016350180    0.000033091680
C    0.749964819370   -0.000035855080    0.250032679240
C    0.749970488190    0.000016042700    0.500026092040
C    0.750013540570    0.000059894620    0.750033901990
C    0.749964540920    0.250016477530   -0.000019007190
C    0.749934973400    0.250005319590    0.250022569970
C    0.750094627740    0.249803067780    0.499979099590
C    0.749775748600    0.250212170890    0.749867271710
C    0.749970559610    0.500009816890    0.000033557970
C    0.750094115200    0.499958183970    0.249825042040
C    0.749560931710    0.500066362810    0.500088666620
C    0.750175036850    0.500131322670    0.750255456810
C    0.750013862670    0.750017200350    0.000077599340
C    0.749774339780    0.749846625120    0.250233326940
C    0.750174379980    0.750235847140    0.500150747970
C    0.750138038680    0.750124514050    0.750142006440
C   -0.000032704600    0.125002204290    0.125018953460
C   -0.000045057820    0.125005735600    0.375014502700
C   -0.000112230950    0.125005484520    0.625023475610
C   -0.000048379040    0.124990038680    0.875000850530
C   -0.000045630750    0.374997554570    0.125024285790
C   -0.000040260670    0.375034941570    0.375053988180
C   -0.000033180180    0.375008290830    0.624991631130
C   -0.000088353960    0.374982246000    0.874996546550
C   -0.000111846420    0.625005423630    0.125026130350
C   -0.000033429690    0.624972484620    0.375027832660
C    0.000089463990    0.624945984040    0.624965503190
C    0.000062795230    0.624981659140    0.874970753920
C   -0.000047646650    0.874983334780    0.125008161840
C   -0.000087520910    0.874977149180    0.375000201320
C    0.000062541590    0.874950882430    0.624999078230
C    0.000051790800    0.874968780310    0.874986477380
C    0.249958140610    0.125024180050    0.125044761530
C    0.249985781960    0.124983188620    0.375044579660
C    0.249863819110    0.124782975690    0.625072472770
C    0.249945825210    0.124896838900    0.875031740090
C    0.249986141340    0.375023909760    0.125004099290
C    0.250471593280    0.375312029310    0.375335504530
C    0.249977868170    0.374805012730    0.625078380320
C    0.249878561610    0.374881563800    0.875124532060
C    0.249866131640    0.625048308100    0.124810008750
C    0.249979254700    0.625052126110    0.374831559280
C    0.250736893540    0.624441490450    0.624465579470
C    0.250228512010    0.624886540110    0.874745424110
C    0.249948119290    0.875008819010    0.124921848740
C    0.249880625100    0.875099586590    0.374905793800
C    0.250228657080    0.874719810540    0.624908865930
C    0.250037943990    0.874855075680    0.874878523000
C    0.499974040130    0.124889941740    0.124908898550
C    0.499953008320    0.125016688350    0.375040242370
C    0.499923214260    0.124966998770    0.625023574080
C    0.499918291870    0.124736560990    0.875241944440
C    0.499953334950    0.375020572760    0.125036535480
C    0.500009569740    0.375370536640    0.375394643130
C    0.498686436010    0.374948296210    0.624872208440
C    0.499962917180    0.375013581120    0.874951192170
C    0.499925681510    0.625000679310    0.124990852590
C    0.498687664070    0.624850397440    0.374970484230
C    0.502160257010    0.624320999730    0.624342577530
C    0.500062939950    0.624946252040    0.874947759920
C    0.499919587880    0.875219839140    0.124759650740
C    0.499964015900    0.874930724700    0.375034538130
C    0.500062709450    0.874926729870    0.624966090520
C    0.500036703070    0.875007502120    0.875028380570
C    0.749969234420    0.124999338580    0.125015438570
C    0.749986643260    0.124956835020    0.375012606210
C    0.749885466300    0.125066848410    0.624998422440
C    0.749944799080    0.125077230710    0.874968511570
C    0.749986214030    0.374995789410    0.124974651910
C    0.749945392040    0.374974203170    0.374994634650
C    0.749199574010    0.375615917600    0.624891686840
C    0.749902630730    0.375050508180    0.874949862190
C    0.749885458250    0.624980083210    0.125086257310
C    0.749200327530    0.624870038890    0.375637822620
C    0.750303493290    0.625240608730    0.625261076350
C    0.750103443260    0.625071232010    0.875151271970
C    0.749944737990    0.874950854320    0.125095113370
C    0.749902264130    0.874931823410    0.375068133570
C    0.750102872250    0.875133419380    0.625087793900
C    0.750047147850    0.875051898240    0.875068574020
C    0.124958248550   -0.000000528100    0.124993147650
C    0.124917060590    0.000003109510    0.374988368750
C    0.124988742470   -0.000132225530    0.625004059240
C    0.124993704430   -0.000074503660    0.874977572500
C    0.124980337980    0.250015919350    0.125062449750
C    0.125014678870    0.250072325100    0.375062489990
C    0.124873188300    0.249875963260    0.625053942010
C    0.124928091630    0.249947479130    0.875023334370
C    0.124775412040    0.500040974160    0.124815301030
C    0.125117806150    0.500017892240    0.375034185520
C    0.125195407300    0.499882909310    0.624895589210
C    0.124865862800    0.499905316300    0.875097389720
C    0.124944736290    0.749995662960    0.124945866660
C    0.124912662180    0.750042362690    0.374932593340
C    0.125190348560    0.749784745680    0.624878761930
C    0.125115005780    0.749896149430    0.874864000490
C    0.374943782230    0.000026430480    0.124947485100
C    0.374973040760   -0.000025324630    0.374999034610
C    0.374996624410   -0.000109721630    0.624994970230
C    0.374972538340   -0.000140515800    0.874998288950
C    0.374957218790    0.250031526840    0.125026253520
C    0.375136925620    0.250214573980    0.375299714460
C    0.374881939240    0.249662388930    0.625230424450
C    0.374913146340    0.249796332430    0.875189887790
C    0.374965964910    0.500032592350    0.124991179770
C    0.375749145790    0.500976535540    0.375340996430
C    0.376124020590    0.498553241200    0.624108962250
C    0.375088518400    0.499906707510    0.874876072220
C    0.374924437420    0.750133617990    0.124781123380
C    0.374915927210    0.750247601480    0.374715029640
C    0.375706327070    0.749201848420    0.624660961270
C    0.375077458570    0.749840113950    0.874825289220
C    0.624986267070   -0.000028439980    0.125032903200
C    0.624965055810   -0.000010479610    0.375028291590
C    0.624989915380    0.000011102110    0.625017040970
C    0.625007433480    0.000012010950    0.875031735610
C    0.624963079160    0.249953523970    0.124954419760
C    0.624909323770    0.249900414380    0.374984755210
C    0.624586248600    0.250278696900    0.624806171090
C    0.624952473540    0.250149109670    0.874906442300
C    0.624912298350    0.499992360640    0.125056561950
C    0.623982475290    0.499539497460    0.375581190320
C    0.624352652180    0.502164027310    0.624589426270
C    0.624989953880    0.500028100130    0.875004494640
C    0.624938051270    0.749957353740    0.125025668370
C    0.624749340090    0.749414163950    0.375576156440
C    0.625224826850    0.750354747190    0.625224222140
C    0.625080150570    0.750086276710    0.875131035830
C    0.874963816500   -0.000013749270    0.125028225390
C    0.874949211190   -0.000024604300    0.375020076340
C    0.874994397010    0.000034740020    0.625024251770
C    0.874997774550    0.000030564490    0.875014549780
C    0.874958973470    0.250004899410    0.125014087420
C    0.874983417240    0.249978592380    0.375016182780
C    0.874750159260    0.250217486650    0.625005105010
C    0.874907608460    0.250035131090    0.874965415380
C    0.875004682380    0.499983603770    0.124977143000
C    0.874805116440    0.500007339710    0.375128330380
C    0.874930996330    0.500047498310    0.625005227050
C    0.875041770570    0.500034558340    0.875060566740
C    0.874908970240    0.749967029610    0.125097432920
C    0.874859827500    0.749908842660    0.375076496160
C    0.875146353730    0.750080724000    0.625077547800
C    0.875076701990    0.750024600390    0.875056716810
C    0.124957319940    0.124974198180    0.000018539170
C    0.124980739580    0.125042749920    0.250034425160
C    0.124774347550    0.124792379460    0.500061788890
C    0.124942838430    0.124922760130    0.750015947500
C    0.124915915330    0.374969130500    0.000024306410
C    0.125014619110    0.375042291620    0.250093046600
C    0.125117971770    0.375012389140    0.500039724170
C    0.124910829060    0.374909949950    0.750065335600
C    0.124989650810    0.624984523230   -0.000108247730
C    0.124875017760    0.625031809550    0.249899589560
C    0.125195213250    0.624872750300    0.499905565760
C    0.125190315580    0.624856598700    0.749808328880
C    0.124994496190    0.874958600790   -0.000053718830
C    0.124930187170    0.875002287720    0.249968549370
C    0.124867143370    0.875074171380    0.499926408840
C    0.125114827210    0.874840826370    0.749916510720
C    0.374942789590    0.124924442330    0.000049105830
C    0.374957359320    0.125006055460    0.250051452840
C    0.374964418930    0.124968404960    0.500055235900
C    0.374922243050    0.124753670840    0.750158774190
C    0.374972693160    0.374978828470   -0.000004557440
C    0.375137289330    0.375275684190    0.250238437820
C    0.375748254550    0.375317584040    0.501000002510
C    0.374914461450    0.374690945160    0.750270866910
C    0.374997913770    0.624973734410   -0.000085223020
C    0.374883839010    0.625205844450    0.249687204740
C    0.376124657720    0.624086474590    0.498576194290
C    0.375706397920    0.624637825560    0.749225224230
C    0.374973509020    0.874975243180   -0.000114730200
C    0.374915074880    0.875165178410    0.249821669840
C    0.375088792880    0.874853918900    0.499928627490
C    0.375077195570    0.874800231320    0.749862597700
C    0.624986084960    0.125015209420   -0.000010693710
C    0.624963335050    0.124936659700    0.249970918440
C    0.624911606390    0.125036991540    0.500011596280
C    0.624936801570    0.125004404960    0.749977828370
C    0.624964854250    0.375010870810    0.000007375870
C    0.624909577560    0.374964243000    0.249921125790
C    0.623980886670    0.375558883970    0.499562188300
C    0.624748333600    0.375555366030    0.749434538740
C    0.624990594590    0.624999299600    0.000030069530
C    0.624587070360    0.624782646770    0.250302427820
C    0.624353515570    0.624568726730    0.502184789690
C    0.625225172590    0.625203824600    0.750375965300
C    0.625007639560    0.875013101650    0.000031247130
C    0.624952993950    0.874887725370    0.250168421120
C    0.624989877850    0.874985787500    0.500046493070
C    0.625079957500    0.875112489710    0.750103932470
C    0.874963642970    0.125012085860    0.000002669160
C    0.874959265510    0.124997599180    0.250020737120
C    0.875005537250    0.124958234030    0.500000480450
C    0.874909369860    0.125078439650    0.749984664280
C    0.874948831090    0.375004299280   -0.000007134070
C    0.874983190990    0.374998494210    0.249996910060
C    0.874805438480    0.375107193350    0.500027703790
C    0.874860991960    0.375057147870    0.749928130680
C    0.874994658090    0.625008174160    0.000052879150
C    0.874748683320    0.624985223880    0.250238783670
C    0.874930643940    0.624985758580    0.500067220580
C    0.875146659300    0.625060202460    0.750098661460
C    0.874997889640    0.874998200820    0.000047485730
C    0.874907395960    0.874947389610    0.250052522100
C    0.875041378810    0.875042694860    0.500050936620
C    0.875076474380    0.875039611110    0.750040786230
C    0.187450650620    0.062532128260    0.187510416000
C    0.187422085590    0.062432778370    0.437512161000
C    0.187443138620    0.062336220680    0.687517694560
C    0.187463794540    0.062439426010    0.937502258300
C    0.187509531950    0.312538894680    0.187577285530
C    0.187600091170    0.312506499540    0.437579218860
C    0.187410397690    0.312403353020    0.687545096630
C    0.187408181810    0.312441164810    0.937573984390
C    0.187148985340    0.562479263680    0.187143989000
C    0.187744316460    0.562424646560    0.437458515880
C    0.187783571890    0.562302953470    0.687331036120
C    0.187542748180    0.562437460110    0.937385120620
C    0.187445551420    0.812507334430    0.187441633540
C    0.187247173740    0.812738021610    0.437478408690
C    0.187702985800    0.812254393390    0.687355996070
C    0.187523850180    0.812423026630    0.937384715200
C    0.437450370920    0.062485040050    0.187489825540
C    0.437448280850    0.062474511750    0.437517271940
C    0.437465505380    0.062397390760    0.687535895290
C    0.437485318480    0.062337116970    0.937600093010
C    0.437416528070    0.312534258510    0.187529360630
C    0.437558993760    0.312825808020    0.437897259980
C    0.437702245990    0.311339135070    0.688676333310
C    0.437458599740    0.312450537070    0.937517674940
C    0.437428869840    0.562537203340    0.187469287820
C    0.438468109010    0.561623862040    0.686405252600
C    0.437504249640    0.562461416460    0.937443712430
C    0.437502314090    0.812938926740    0.187042352840
C    0.437495435580    0.812432988320    0.437416628170
C    0.437659402190    0.812264155340    0.687357248630
C    0.437518302460    0.812435195170    0.937408320610
C    0.687473606960    0.062465361210    0.187514242970
C    0.687451845320    0.062506844310    0.437535124180
C    0.687478964900    0.062519424510    0.687533927700
C    0.687478604960    0.062536833430    0.937502747340
C    0.687452752560    0.312496020910    0.187449086690
C    0.687920961610    0.311971999620    0.437664293410
C    0.687101835070    0.312799863360    0.687294551210
C    0.687456419470    0.312529271190    0.937482194360
C    0.687357261300    0.562522661630    0.187585431520
C    0.686332985260    0.561959591700    0.438471972600
C    0.688035559850    0.562782417080    0.688141142860
C    0.687509417300    0.562519389960    0.937547689510
C    0.687399844280    0.812409455160    0.187627349490
C    0.687421932420    0.812406131570    0.437611077350
C    0.687663153880    0.812729834540    0.687665670170
C    0.687546105520    0.812556000380    0.937591440550
C    0.937459365720    0.062497037150    0.187520844960
C    0.937466906920    0.062472255130    0.437529777910
C    0.937447473600    0.062529199410    0.687506233340
C    0.937476380520    0.062506699690    0.937510228440
C    0.937474060040    0.312500012360    0.187517155170
C    0.937407713950    0.312542971330    0.437536959480
C    0.937391960450    0.312555135320    0.687483003140
C    0.937425454260    0.312508774040    0.937488982040
C    0.937365304930    0.562483982630    0.187607466320
C    0.937439083900    0.562492785220    0.437543269410
C    0.937542723700    0.562508059060    0.687501759000
C    0.937507426860    0.562499625160    0.937515333080
C    0.937417570550    0.812474913720    0.187539781990
C    0.937449883900    0.812448769920    0.437539501420
C    0.937616717050    0.812520418560    0.687536464780
C    0.937537614160    0.812500131290    0.937528624920
C    0.062463659530    0.062491556190    0.062509367500
C    0.062454838320    0.062521552420    0.312515444990
C    0.062355696320    0.062375585400    0.562495815780
C    0.062474648800    0.062457604000    0.812500491190
C    0.062454005540    0.312497767170    0.062541053220
C    0.062471113900    0.312513739690    0.312533031250
C    0.062491055440    0.312496171860    0.562505490560
C    0.062401988560    0.312468512650    0.812514447430
C    0.062356631140    0.562476628180    0.062398105260
C    0.062491071850    0.562485482530    0.312516939460
C    0.062618788840    0.562441485440    0.562462717910
C    0.062557198610    0.562450997130    0.812444142340
C    0.062475953590    0.812482148740    0.062477926110
C    0.062403726390    0.812493747100    0.312488842210
C    0.062557508170    0.812422783750    0.562470773200
C    0.062601394540    0.812423385750    0.812443491650
C    0.312452546480    0.062493076360    0.062515071970
C    0.312437661260    0.062483095290    0.312500063260
C    0.312455855670    0.062400899080    0.562516110150
C    0.312454148330    0.062313615640    0.812540869620
C    0.312437275190    0.312479886280    0.062503711650
C    0.312645681000    0.312700667940    0.312724681310
C    0.311831062570    0.311616080640    0.562393631600
C    0.312420657000    0.312338056490    0.812722421950
C    0.312457418800    0.562494174940    0.062425096290
C    0.311831715220    0.562369097540    0.311639827670
C    0.313649132320    0.561819606680    0.561842798730
C    0.312774613710    0.562261167800    0.812165128340
C    0.312456524990    0.812516639340    0.062341355960
C    0.312422885960    0.812697024130    0.312364025740
C    0.312774883490    0.812140718470    0.562284449130
C    0.312598648710    0.812291725330    0.812316076140
C    0.562466462490    0.062442309230    0.062460721140
C    0.562447594800    0.062491501730    0.312521076750
C    0.562461121400    0.062491806000    0.562533245410
C    0.562478293260    0.062437898720    0.812556174350
C    0.562447414220    0.312502938990    0.062509867260
C    0.562264281600    0.311897694960    0.311919453750
C    0.561914263100    0.312849290200    0.562471244640
C    0.562343482050    0.312602391380    0.812361368340
C    0.562462340090    0.562513919800    0.062511866600
C    0.561915339950    0.562447326220    0.312872988530
C    0.562543677460    0.562476880310    0.812524023790
C    0.562479610120    0.812535355160    0.062460108820
C    0.562344819070    0.812341113080    0.312623062190
C    0.562544022080    0.812503755240    0.562497007650
C    0.562585971760    0.812611022780    0.812630012770
C    0.812472917840    0.062506361650    0.062522471720
C    0.812463839740    0.062469556780    0.312522543370
C    0.812460916870    0.062528799370    0.562525792050
C    0.812468992240    0.062567186250    0.812505600600
C    0.812463449480    0.312506770370    0.062486447900
C    0.812497122420    0.312496039010    0.312514315340
C    0.812108511910    0.312793990160    0.562450609920
C    0.812369075410    0.312566598400    0.812432440670
C    0.812460866990    0.562509266610    0.062546953330
C    0.812107880070    0.562429187150    0.312816323540
C    0.812437014700    0.562553798260    0.562574076070
C    0.812656253180    0.562573822600    0.812675807130
C    0.812469090230    0.812488797300    0.062584815900
C    0.812368168040    0.812413475680    0.312585269820
C    0.812655832070    0.812657830650    0.562590800110
C    0.812601045920    0.812576666850    0.812593230360
C    0.062474146720    0.187515377520    0.187533405070
C    0.062434286220    0.187492760800    0.437527271580
C    0.062391562560    0.187458111960    0.687519734770
C    0.062446419280    0.187479860270    0.937514875860
C    0.062434129630    0.437508294180    0.187512944690
C    0.062548054790    0.437497781850    0.437518209680
C    0.062544347770    0.437471197940    0.687466818600
C    0.062371978050    0.437494457900    0.937552480460
C    0.062393119280    0.687499860240    0.187480006010
C    0.062544538130    0.687446026930    0.437491798010
C    0.062630039940    0.687418040750    0.687439234510
C    0.062547641480    0.687461377410    0.937425209630
C    0.062447918760    0.937495975980    0.187498474930
C    0.062373260820    0.937531221200    0.437513489640
C    0.062547273160    0.937403154050    0.687479907000
C    0.062502896120    0.937465813040    0.937484260580
C    0.312469827270    0.187552984980    0.187573312430
C    0.312412465420    0.187453511880    0.437585904550
C    0.312420570940    0.187221719870    0.687611301860
C    0.312426690940    0.187392776570    0.937603572560
C    0.312413538910    0.437562439560    0.187476178650
C    0.313424393820    0.437853584700    0.437877113230
C    0.311989690460    0.437504339120    0.688232443130
C    0.312478963260    0.437451381540    0.937464685370
C    0.312423095680    0.687585434870    0.187249402720
C    0.311990184910    0.688209128670    0.437528414980
C    0.312977922700    0.687028507350    0.687052722210
C    0.312544001350    0.687423914280    0.937353211670
C    0.312429114570    0.937579370640    0.187417723210
C    0.312479739520    0.937442697020    0.437472598160
C    0.312543482710    0.937327187560    0.687445508660
C    0.312486083060    0.937401955500    0.937425618930
C    0.562424161730    0.187303078710    0.187321747660
C    0.562375569910    0.187529863750    0.437579254720
C    0.562368252150    0.187444978830    0.687603469960
C    0.562452477230    0.187500723770    0.937500539440
C    0.562376482850    0.437558274590    0.187550487980
C    0.561750934020    0.438150991370    0.686621952530
C    0.562479867740    0.437486936320    0.937495629030
C    0.562370853390    0.687579983400    0.187469019190
C    0.561752460550    0.686601434510    0.438172285190
C    0.562824346740    0.687985018430    0.688006810790
C    0.562521316570    0.687499484140    0.937508021190
C    0.562453420640    0.937481322530    0.187520360030
C    0.562480190540    0.937476844640    0.437505499780
C    0.562520876070    0.937488029060    0.687517878070
C    0.562504303160    0.937503660310    0.937523301980
C    0.812455376220    0.187505176210    0.187521327300
C    0.812590511460    0.187369283630    0.437549028230
C    0.812333306500    0.187638337450    0.687468215990
C    0.812447885200    0.187530852170    0.937481812300
C    0.812589627270    0.437530905430    0.187388979750
C    0.812279169210    0.437546768180    0.437568061220
C    0.812299692630    0.437650387190    0.687471161900
C    0.812457086160    0.437525356440    0.937496343130
C    0.812332268460    0.687449202860    0.187658707200
C    0.812298813780    0.687450931140    0.437671045940
C    0.812738288500    0.687651023740    0.687669156100
C    0.812559737740    0.687541349020    0.937599366050
C    0.812448053590    0.937464781870    0.187547453710
C    0.812457014810    0.937478937950    0.437541455760
C    0.812559318760    0.937581937960    0.687557377150
C    0.812511738750    0.937530879360    0.937547283810
C    0.187449679980    0.187490506490    0.062552927130
C    0.187509322180    0.187556470230    0.312558937770
C    0.187148062840    0.187119369690    0.562502885570
C    0.187442808550    0.187416907170    0.812530378610
C    0.187422408580    0.437492236870    0.062454243760
C    0.187599990230    0.437556137470    0.312529225940
C    0.187744468940    0.437433800060    0.562449381200
C    0.187246111920    0.437454552600    0.812762400390
C    0.187445336910    0.687495640000    0.062362645310
C    0.187412774760    0.687519884390    0.312429306420
C    0.187783441250    0.687306459270    0.562327048960
C    0.187702793240    0.687333086460    0.812279491780
C    0.187465291570    0.937481476230    0.062461199270
C    0.187410562360    0.937550841370    0.312463310080
C    0.187543088300    0.937361466730    0.562457947890
C    0.187523095140    0.937360487140    0.812444281800
C    0.437449900540    0.187469990340    0.062504920060
C    0.437416136340    0.187508591010    0.312555146690
C    0.437426597460    0.187444796260    0.562561814630
C    0.437500345740    0.187019087920    0.812961163680
C    0.437448938870    0.437497345660    0.062494770670
C    0.437559575820    0.437872684140    0.312850289860
C    0.437494104430    0.437393500040    0.812455091200
C    0.437467777400    0.687513175740    0.062422841940
C    0.437703972770    0.688654054570    0.311361942090
C    0.438468558500    0.686383217980    0.561646188390
C    0.437659310200    0.687335532970    0.812287306080
C    0.437486719320    0.937576951950    0.062361654760
C    0.437459913320    0.937496344670    0.312472035990
C    0.437504050140    0.937422288710    0.562481354750
C    0.437517613660    0.937384407190    0.812456514080
C    0.687473387330    0.187497744450    0.062482163560
C    0.687452929030    0.187431043490    0.312513782880
C    0.687356517680    0.187564691330    0.562543086270
C    0.687399732850    0.187607578700    0.812428670190
C    0.687451962420    0.437518038030    0.062524603990
C    0.687921624550    0.437642892350    0.311992859180
C    0.686331920810    0.438450275870    0.561981286230
C    0.687422060880    0.437592133850    0.812425138160
C    0.687479703740    0.687515969460    0.062538446210
C    0.687102012550    0.687272088670    0.312822625570
C    0.688035638100    0.688120217210    0.562803547390
C    0.687663481700    0.687647936390    0.812748637210
C    0.687478748180    0.937485366900    0.062554384120
C    0.687456747250    0.937464668370    0.312546523900
C    0.687509160260    0.937529854200    0.562536227570
C    0.687545929380    0.937573734480    0.812573020430
C    0.937458972940    0.187504728600    0.062513766660
C    0.937474356280    0.187499665320    0.312516742560
C    0.937366226870    0.187587489430    0.562501882520
C    0.937417142750    0.187521585900    0.812492691010
C    0.937466272670    0.437513451920    0.062490832840
C    0.937407489700    0.437518433340    0.312562225490
C    0.937439262320    0.437523722940    0.562511896390
C    0.937450158860    0.437521817350    0.812467494160
C    0.937447769550    0.687489342660    0.062548332920
C    0.937391150730    0.687464140190    0.312574691470
C    0.937542681050    0.687483027160    0.562526538030
C    0.937616885150    0.687519249890    0.812538663480
C    0.937476782100    0.937493677670    0.062523440190
C    0.937426080110    0.937470911160    0.312525443680
C    0.937507145100    0.937496500920    0.562516081730
C    0.937537364720    0.937511067630    0.812516651680
C    0.567450933490    0.431928258740    0.431950020680
C    0.432864436720    0.431190745690    0.568228195130
C    0.432865216040    0.568206616420    0.431212655440
N    0.566889646560    0.566748257940    0.566768840280
