&CONTROL
calculation = 'scf'
restart_mode = 'from_scratch'
prefix = 'pwscf'
pseudo_dir = './'
outdir = './'
tprnfor = .TRUE.
verbosity = 'high'
forc_conv_thr = 0.000039
/
&SYSTEM
ibrav = 0
nat = 511
ntyp = 2
ecutwfc = 80
tot_charge = -1
nspin = 2
tot_magnetization = 2
occupations = 'from_input'
nbnd = 1032
/
&ELECTRONS
electron_maxstep = 100
conv_thr = 1.0d-10
mixing_mode = 'plain'
mixing_beta = 0.7
diagonalization = 'david'
diago_full_acc = .TRUE.
startingpot = 'atomic'
startingwfc = 'atomic+random'
/
&IONS
ion_dynamics='bfgs'
ion_positions='default'
/
ATOMIC_SPECIES
C  12.011   C_ONCV_PBE-1.2.upf
N  14.0067  N_ONCV_PBE-1.2.upf
CELL_PARAMETERS angstrom
14.272  0.0000  0.0000
0.0000  14.272  0.0000
0.0000  0.0000  14.272
K_POINTS gamma
OCCUPATIONS
1 1 1 1 1 1 1 1 1 1
1 1 1 1 1 1 1 1 1 1
1 1 1 1 1 1 1 1 1 1
1 1 1 1 1 1 1 1 1 1
1 1 1 1 1 1 1 1 1 1
1 1 1 1 1 1 1 1 1 1
1 1 1 1 1 1 1 1 1 1
1 1 1 1 1 1 1 1 1 1
1 1 1 1 1 1 1 1 1 1
1 1 1 1 1 1 1 1 1 1
1 1 1 1 1 1 1 1 1 1
1 1 1 1 1 1 1 1 1 1
1 1 1 1 1 1 1 1 1 1
1 1 1 1 1 1 1 1 1 1
1 1 1 1 1 1 1 1 1 1
1 1 1 1 1 1 1 1 1 1
1 1 1 1 1 1 1 1 1 1
1 1 1 1 1 1 1 1 1 1
1 1 1 1 1 1 1 1 1 1
1 1 1 1 1 1 1 1 1 1
1 1 1 1 1 1 1 1 1 1
1 1 1 1 1 1 1 1 1 1
1 1 1 1 1 1 1 1 1 1
1 1 1 1 1 1 1 1 1 1
1 1 1 1 1 1 1 1 1 1
1 1 1 1 1 1 1 1 1 1
1 1 1 1 1 1 1 1 1 1
1 1 1 1 1 1 1 1 1 1
1 1 1 1 1 1 1 1 1 1
1 1 1 1 1 1 1 1 1 1
1 1 1 1 1 1 1 1 1 1
1 1 1 1 1 1 1 1 1 1
1 1 1 1 1 1 1 1 1 1
1 1 1 1 1 1 1 1 1 1
1 1 1 1 1 1 1 1 1 1
1 1 1 1 1 1 1 1 1 1
1 1 1 1 1 1 1 1 1 1
1 1 1 1 1 1 1 1 1 1
1 1 1 1 1 1 1 1 1 1
1 1 1 1 1 1 1 1 1 1
1 1 1 1 1 1 1 1 1 1
1 1 1 1 1 1 1 1 1 1
1 1 1 1 1 1 1 1 1 1
1 1 1 1 1 1 1 1 1 1
1 1 1 1 1 1 1 1 1 1
1 1 1 1 1 1 1 1 1 1
1 1 1 1 1 1 1 1 1 1
1 1 1 1 1 1 1 1 1 1
1 1 1 1 1 1 1 1 1 1
1 1 1 1 1 1 1 1 1 1
1 1 1 1 1 1 1 1 1 1
1 1 1 1 1 1 1 1 1 1
1 1 1 1 1 1 1 1 1 1
1 1 1 1 1 1 1 1 1 1
1 1 1 1 1 1 1 1 1 1
1 1 1 1 1 1 1 1 1 1
1 1 1 1 1 1 1 1 1 1
1 1 1 1 1 1 1 1 1 1
1 1 1 1 1 1 1 1 1 1
1 1 1 1 1 1 1 1 1 1
1 1 1 1 1 1 1 1 1 1
1 1 1 1 1 1 1 1 1 1
1 1 1 1 1 1 1 1 1 1
1 1 1 1 1 1 1 1 1 1
1 1 1 1 1 1 1 1 1 1
1 1 1 1 1 1 1 1 1 1
1 1 1 1 1 1 1 1 1 1
1 1 1 1 1 1 1 1 1 1
1 1 1 1 1 1 1 1 1 1
1 1 1 1 1 1 1 1 1 1
1 1 1 1 1 1 1 1 1 1
1 1 1 1 1 1 1 1 1 1
1 1 1 1 1 1 1 1 1 1
1 1 1 1 1 1 1 1 1 1
1 1 1 1 1 1 1 1 1 1
1 1 1 1 1 1 1 1 1 1
1 1 1 1 1 1 1 1 1 1
1 1 1 1 1 1 1 1 1 1
1 1 1 1 1 1 1 1 1 1
1 1 1 1 1 1 1 1 1 1
1 1 1 1 1 1 1 1 1 1
1 1 1 1 1 1 1 1 1 1
1 1 1 1 1 1 1 1 1 1
1 1 1 1 1 1 1 1 1 1
1 1 1 1 1 1 1 1 1 1
1 1 1 1 1 1 1 1 1 1
1 1 1 1 1 1 1 1 1 1
1 1 1 1 1 1 1 1 1 1
1 1 1 1 1 1 1 1 1 1
1 1 1 1 1 1 1 1 1 1
1 1 1 1 1 1 1 1 1 1
1 1 1 1 1 1 1 1 1 1
1 1 1 1 1 1 1 1 1 1
1 1 1 1 1 1 1 1 1 1
1 1 1 1 1 1 1 1 1 1
1 1 1 1 1 1 1 1 1 1
1 1 1 1 1 1 1 1 1 1
1 1 1 1 1 1 1 1 1 1
1 1 1 1 1 1 1 1 1 1
1 1 1 1 1 1 1 1 1 1
1 1 1 1 1 1 1 1 1 1
1 1 1 1 1 1 1 1 1 1
1 1 1 1 0 0 0 0 0 0
0 0
1 1 1 1 1 1 1 1 1 1
1 1 1 1 1 1 1 1 1 1
1 1 1 1 1 1 1 1 1 1
1 1 1 1 1 1 1 1 1 1
1 1 1 1 1 1 1 1 1 1
1 1 1 1 1 1 1 1 1 1
1 1 1 1 1 1 1 1 1 1
1 1 1 1 1 1 1 1 1 1
1 1 1 1 1 1 1 1 1 1
1 1 1 1 1 1 1 1 1 1
1 1 1 1 1 1 1 1 1 1
1 1 1 1 1 1 1 1 1 1
1 1 1 1 1 1 1 1 1 1
1 1 1 1 1 1 1 1 1 1
1 1 1 1 1 1 1 1 1 1
1 1 1 1 1 1 1 1 1 1
1 1 1 1 1 1 1 1 1 1
1 1 1 1 1 1 1 1 1 1
1 1 1 1 1 1 1 1 1 1
1 1 1 1 1 1 1 1 1 1
1 1 1 1 1 1 1 1 1 1
1 1 1 1 1 1 1 1 1 1
1 1 1 1 1 1 1 1 1 1
1 1 1 1 1 1 1 1 1 1
1 1 1 1 1 1 1 1 1 1
1 1 1 1 1 1 1 1 1 1
1 1 1 1 1 1 1 1 1 1
1 1 1 1 1 1 1 1 1 1
1 1 1 1 1 1 1 1 1 1
1 1 1 1 1 1 1 1 1 1
1 1 1 1 1 1 1 1 1 1
1 1 1 1 1 1 1 1 1 1
1 1 1 1 1 1 1 1 1 1
1 1 1 1 1 1 1 1 1 1
1 1 1 1 1 1 1 1 1 1
1 1 1 1 1 1 1 1 1 1
1 1 1 1 1 1 1 1 1 1
1 1 1 1 1 1 1 1 1 1
1 1 1 1 1 1 1 1 1 1
1 1 1 1 1 1 1 1 1 1
1 1 1 1 1 1 1 1 1 1
1 1 1 1 1 1 1 1 1 1
1 1 1 1 1 1 1 1 1 1
1 1 1 1 1 1 1 1 1 1
1 1 1 1 1 1 1 1 1 1
1 1 1 1 1 1 1 1 1 1
1 1 1 1 1 1 1 1 1 1
1 1 1 1 1 1 1 1 1 1
1 1 1 1 1 1 1 1 1 1
1 1 1 1 1 1 1 1 1 1
1 1 1 1 1 1 1 1 1 1
1 1 1 1 1 1 1 1 1 1
1 1 1 1 1 1 1 1 1 1
1 1 1 1 1 1 1 1 1 1
1 1 1 1 1 1 1 1 1 1
1 1 1 1 1 1 1 1 1 1
1 1 1 1 1 1 1 1 1 1
1 1 1 1 1 1 1 1 1 1
1 1 1 1 1 1 1 1 1 1
1 1 1 1 1 1 1 1 1 1
1 1 1 1 1 1 1 1 1 1
1 1 1 1 1 1 1 1 1 1
1 1 1 1 1 1 1 1 1 1
1 1 1 1 1 1 1 1 1 1
1 1 1 1 1 1 1 1 1 1
1 1 1 1 1 1 1 1 1 1
1 1 1 1 1 1 1 1 1 1
1 1 1 1 1 1 1 1 1 1
1 1 1 1 1 1 1 1 1 1
1 1 1 1 1 1 1 1 1 1
1 1 1 1 1 1 1 1 1 1
1 1 1 1 1 1 1 1 1 1
1 1 1 1 1 1 1 1 1 1
1 1 1 1 1 1 1 1 1 1
1 1 1 1 1 1 1 1 1 1
1 1 1 1 1 1 1 1 1 1
1 1 1 1 1 1 1 1 1 1
1 1 1 1 1 1 1 1 1 1
1 1 1 1 1 1 1 1 1 1
1 1 1 1 1 1 1 1 1 1
1 1 1 1 1 1 1 1 1 1
1 1 1 1 1 1 1 1 1 1
1 1 1 1 1 1 1 1 1 1
1 1 1 1 1 1 1 1 1 1
1 1 1 1 1 1 1 1 1 1
1 1 1 1 1 1 1 1 1 1
1 1 1 1 1 1 1 1 1 1
1 1 1 1 1 1 1 1 1 1
1 1 1 1 1 1 1 1 1 1
1 1 1 1 1 1 1 1 1 1
1 1 1 1 1 1 1 1 1 1
1 1 1 1 1 1 1 1 1 1
1 1 1 1 1 1 1 1 1 1
1 1 1 1 1 1 1 1 1 1
1 1 1 1 1 1 1 1 1 1
1 1 1 1 1 1 1 1 1 1
1 1 1 1 1 1 1 1 1 1
1 1 1 1 1 1 1 1 1 1
1 1 1 1 1 1 1 1 1 1
1 1 1 1 1 1 1 1 1 1
1 1 1 1 1 1 1 1 1 1
1 1 1 1 1 1 1 1 1 1
1 0 1 0 0 0 0 0 0 0
0 0
ATOMIC_POSITIONS crystal
C   -0.000011384150   -0.000007011550    0.000005095350
C   -0.000052194600   -0.000018820750    0.250014571000
C   -0.000068010950   -0.000024675800    0.500007555950
C    0.000026728650    0.000004050500    0.749995729600
C   -0.000052723500    0.250002588800   -0.000005981300
C   -0.000047473550    0.249996071700    0.250008605600
C   -0.000090588050    0.250041600300    0.500010558600
C   -0.000100777850    0.250013397850    0.749988305050
C   -0.000068062100    0.499995301750   -0.000010290150
C   -0.000090857200    0.499997420700    0.250055597950
C   -0.000000146800    0.499994044150    0.500008011750
C    0.000042655750    0.499993621300    0.749966473450
C    0.000027005850    0.749983610100    0.000017966050
C   -0.000100354250    0.749974698250    0.250027454050
C    0.000042629300    0.749952610250    0.500006876200
C    0.000159899800    0.749990498000    0.750003942600
C    0.249982166050   -0.000049829600   -0.000034491700
C    0.249935524950   -0.000004165550    0.249963440850
C    0.250003173100   -0.000100307150    0.499986286750
C    0.250008848650   -0.000148292100    0.749976117500
C    0.249934375400    0.249947902300    0.000011891600
C    0.250040573950    0.250081536500    0.250096995450
C    0.249533776900    0.249488643450    0.500135706300
C    0.249963060750    0.249912548200    0.750011097250
C    0.250003415100    0.499971792000   -0.000084244200
C    0.249533880800    0.500118565500    0.249505204450
C    0.250593240250    0.499848014950    0.499865754400
C    0.249816520550    0.499730199700    0.750201985200
C    0.250009871000    0.749960417850   -0.000129033300
C    0.249964981950    0.749992687150    0.249931908900
C    0.249816364550    0.750184692050    0.499747377700
C    0.250339204350    0.749695811650    0.749713631150
C    0.499979761800   -0.000027447750   -0.000012210550
C    0.499964432600   -0.000045351050    0.250019705000
C    0.499987823200   -0.000032675400    0.500008400400
C    0.500007429050   -0.000024337550    0.750001197800
C    0.499964007450    0.250005819300   -0.000031340250
C    0.499943426800    0.249639622150    0.249654510000
C    0.499838965200    0.250256026450    0.499973257450
C    0.499796459150    0.249522223600    0.750455385800
C    0.499988191250    0.499994842050   -0.000018506450
C    0.499839776000    0.499955997250    0.250273043000
C    0.500084286600    0.499989689600    0.749662586000
C    0.500008214300    0.749986426000   -0.000007776500
C    0.499797801650    0.750440085950    0.249537870350
C    0.500084912250    0.749647109250    0.500005470900
C    0.500227320400    0.750231450950    0.750246502900
C    0.749988563450    0.000033194300    0.000045154800
C    0.749957878750   -0.000048040600    0.250043178600
C    0.749973599050    0.000034703100    0.500030780400
C    0.750029507350    0.000113998100    0.750044052650
C    0.749957677000    0.250031603950   -0.000036007250
C    0.749916958600    0.250005651250    0.250017974950
C    0.750054195300    0.249857078100    0.499945800050
C    0.749770546800    0.250264758950    0.749835920450
C    0.749973648350    0.500019152150    0.000047211150
C    0.750053829200    0.499930859750    0.249872772000
C    0.749551824250    0.500094724150    0.500110660300
C    0.750272520150    0.500210132050    0.750329965550
C    0.750029738850    0.750032122050    0.000126646900
C    0.749769542500    0.749821174600    0.250279870700
C    0.750272052100    0.750315957500    0.500224011550
C    0.750195617000    0.750185954550    0.750198453400
C   -0.000038123400    0.124995950350    0.125007916900
C   -0.000057332700    0.124992753800    0.375003051700
C   -0.000103015850    0.125027371200    0.625010827550
C   -0.000039607200    0.125008748600    0.874989284550
C   -0.000057741650    0.374990940750    0.125006003650
C   -0.000071562450    0.375024387950    0.375037996100
C   -0.000040308900    0.375020844050    0.624980479950
C   -0.000071173800    0.374996801000    0.874982239650
C   -0.000102742900    0.624997933850    0.125042117650
C   -0.000040490550    0.624966805300    0.375034804500
C    0.000101736450    0.624967877800    0.624981822050
C    0.000094615650    0.624998569300    0.874996845800
C   -0.000039084350    0.874976775300    0.125021696000
C   -0.000070581050    0.874968386100    0.375009630800
C    0.000094433050    0.874982652450    0.625011012650
C    0.000074967200    0.874989565850    0.875002208900
C    0.249959040750    0.125000197950    0.125014900150
C    0.249972278800    0.124947727500    0.375012406300
C    0.249883387850    0.124813318950    0.625033110950
C    0.249962368950    0.124920489700    0.874998524150
C    0.249972533500    0.374997635800    0.124962660550
C    0.250341084200    0.375219159850    0.375235928150
C    0.249972280150    0.374826233350    0.625000051200
C    0.249912842350    0.374910100600    0.875059557700
C    0.249885038800    0.625015847900    0.124832620850
C    0.249973267100    0.624981299050    0.374845194600
C    0.250676177300    0.624480539350    0.624497746650
C    0.250259383150    0.624901157850    0.874733930250
C    0.249964008150    0.874982153950    0.124938351300
C    0.249914313700    0.875041742650    0.374927412600
C    0.250259484200    0.874715637700    0.624917109150
C    0.250061702650    0.874871310400    0.874888056200
C    0.499974573150    0.124864530100    0.124878069250
C    0.499942898600    0.125000293850    0.375013584550
C    0.499925407500    0.125010304750    0.624980618600
C    0.499932097050    0.124816801050    0.875165916600
C    0.499943129050    0.374999533400    0.125014463800
C    0.500069627900    0.375278341600    0.375295557950
C    0.498838855350    0.375258666950    0.624484000800
C    0.499973600900    0.375060360000    0.874889237750
C    0.499927171250    0.624964266050    0.125027334050
C    0.498839728250    0.624468423800    0.375274513250
C    0.502435993750    0.624500484950    0.624515905950
C    0.500090053050    0.624976175800    0.874960165200
C    0.499933026200    0.875150129100    0.124833290300
C    0.499974387700    0.874874622700    0.375075330150
C    0.500089887550    0.874945145450    0.624990349000
C    0.500062511850    0.875058254400    0.875073168150
C    0.749961560900    0.125000237900    0.125011738750
C    0.749972904100    0.124964148100    0.375005212350
C    0.749879040900    0.125111607550    0.624978913400
C    0.749945708400    0.125115269250    0.874956667950
C    0.749972594650    0.374993198350    0.124976872450
C    0.749895318400    0.374989214950    0.375003809150
C    0.749187253750    0.375687938200    0.624863589400
C    0.749903507750    0.375082715500    0.874934485250
C    0.749879035150    0.624965815950    0.125125469050
C    0.749187792550    0.624848125150    0.375703585500
C    0.750408644750    0.625320382950    0.625335007250
C    0.750150617900    0.625112810750    0.875207825550
C    0.749945667050    0.874944056200    0.125128043150
C    0.749903246750    0.874921601550    0.375095307350
C    0.750150209750    0.875195071700    0.625124644100
C    0.750071339950    0.875092835000    0.875104749700
C    0.124964552250   -0.000015137900    0.124989482750
C    0.124929411650   -0.000022921750    0.374984385450
C    0.125015409450   -0.000117292550    0.624996961000
C    0.125011365850   -0.000058264500    0.874972657100
C    0.124968881900    0.250000309850    0.125027535450
C    0.124970218250    0.250034091900    0.375025198250
C    0.124877753100    0.249892063100    0.625019873550
C    0.124942811650    0.249963549750    0.874992520350
C    0.124782718600    0.500022376600    0.124811212450
C    0.125072512850    0.499989237400    0.375009254800
C    0.125173447700    0.499896614250    0.624889200550
C    0.124909157200    0.499922822500    0.875062663800
C    0.124961232550    0.749980439000    0.124962041100
C    0.124932589500    0.750012704550    0.374948060300
C    0.125199814800    0.749807099600    0.624893444750
C    0.125142250300    0.749910958650    0.874882017750
C    0.374952537650   -0.000006266200    0.124951144300
C    0.374980178800   -0.000060885850    0.374998743550
C    0.375012513750   -0.000094973650    0.624982866450
C    0.374989872100   -0.000108429400    0.874983483650
C    0.374950004250    0.250004950000    0.124978487000
C    0.375094091500    0.250157500700    0.375210366100
C    0.374881186000    0.249746937550    0.625108654150
C    0.374932664700    0.249854104650    0.875106240650
C    0.374960528650    0.499999738050    0.124982065150
C    0.375548779850    0.500760322900    0.375257239450
C    0.376098476650    0.498743706200    0.623938822950
C    0.375113893200    0.499933444850    0.874835581500
C    0.374942237500    0.750077886050    0.124838633500
C    0.374947591550    0.750111188000    0.374804089000
C    0.375752519250    0.749188880900    0.624698788850
C    0.375101970350    0.749858852050    0.874845503700
C    0.624984255450   -0.000043162300    0.125046955400
C    0.624961502150   -0.000024087350    0.375035131450
C    0.624999261900    0.000045770250    0.625018634750
C    0.625016982400    0.000058343450    0.875040404150
C    0.624954973800    0.249947462750    0.124935775000
C    0.624879297950    0.249916956300    0.374954622550
C    0.624583938600    0.250348899700    0.624741024950
C    0.624948256300    0.250202666050    0.874848942100
C    0.624901137650    0.499974795200    0.125074272450
C    0.623848474550    0.499448178100    0.375710735600
C    0.624523100700    0.502438676250    0.624692225050
C    0.625007395400    0.500065159750    0.875000690000
C    0.624935796850    0.749930390500    0.125082188950
C    0.624761917150    0.749340534850    0.375659536800
C    0.625309116750    0.750445253250    0.625308683100
C    0.625119187150    0.750138354650    0.875193371450
C    0.874962831100   -0.000014869650    0.125036028250
C    0.874948427250   -0.000025634900    0.375023828100
C    0.875013731150    0.000074580500    0.625028993750
C    0.875010275450    0.000059805550    0.875022260900
C    0.874946548850    0.250004563950    0.125004239500
C    0.874958759400    0.249984290900    0.375006261300
C    0.874737310500    0.250251506750    0.624985847350
C    0.874908830100    0.250059691150    0.874950121900
C    0.874996441700    0.499978743550    0.124988644200
C    0.874784894800    0.500005325850    0.375142326900
C    0.874948188350    0.500079016450    0.625018303950
C    0.875082730150    0.500060973900    0.875096157700
C    0.874914137000    0.749961587350    0.125129701400
C    0.874870171900    0.749907945700    0.375101281200
C    0.875204307950    0.750134389000    0.625117324600
C    0.875110552250    0.750055234050    0.875096280550
C    0.124963890100    0.124975945700   -0.000001519850
C    0.124969167900    0.125013463000    0.250013532000
C    0.124781960250    0.124794843900    0.500037250550
C    0.124959878650    0.124945540150    0.749994925100
C    0.124928594750    0.374970636700   -0.000007784250
C    0.124970173850    0.375010765700    0.250048894400
C    0.125072633150    0.374993687100    0.500004833350
C    0.124931284700    0.374931884450    0.750029111200
C    0.125016058550    0.624983003850   -0.000100169550
C    0.124879055000    0.625004064650    0.249908937600
C    0.125173305950    0.624872887900    0.499912800000
C    0.125199794100    0.624877611300    0.749823943600
C    0.125011932250    0.874959108450   -0.000043419050
C    0.124944306750    0.874977489600    0.249978601350
C    0.124910068750    0.875046082700    0.499937894600
C    0.125142120750    0.874865465950    0.749925503000
C    0.374951826050    0.124934685750    0.000009929050
C    0.374950107200    0.124964060100    0.250019186000
C    0.374959426950    0.124965806000    0.500015914300
C    0.374940668950    0.124819031400    0.750095853050
C    0.374979928800    0.374984307450   -0.000046057000
C    0.375094348150    0.375193199050    0.250174542300
C    0.375548143250    0.375240518600    0.500777078450
C    0.374946547150    0.374786885800    0.750127802450
C    0.375013436150    0.624967695150   -0.000077483500
C    0.374882541550    0.625091098150    0.249764655700
C    0.376098930600    0.623922762050    0.498760101550
C    0.375752571000    0.624682258200    0.749205579050
C    0.374990566300    0.874967024100   -0.000090013400
C    0.374934044800    0.875088593950    0.249872202800
C    0.375114086400    0.874819761700    0.499949106550
C    0.375101781350    0.874827607200    0.749874913300
C    0.624984122800    0.125034316700   -0.000030487250
C    0.624955159150    0.124923092100    0.249959888800
C    0.624900644250    0.125060299300    0.499988535800
C    0.624934901350    0.125067004800    0.749945012950
C    0.624961354750    0.375022687750   -0.000011339150
C    0.624879477800    0.374939970400    0.249931746450
C    0.623847341250    0.375694803350    0.499464388700
C    0.624761196800    0.375644685650    0.749355087700
C    0.624999747050    0.625005961200    0.000059315550
C    0.624584527000    0.624724224150    0.250365843500
C    0.624523716550    0.624677431950    0.502453513950
C    0.625309362850    0.625294108000    0.750460413900
C    0.625017131600    0.875027092750    0.000072084150
C    0.624948631450    0.874835575150    0.250216458800
C    0.625007341950    0.874987328900    0.500078299850
C    0.625119048100    0.875180121650    0.750150969050
C    0.874962707150    0.125024496300   -0.000003140200
C    0.874946757450    0.124992461900    0.250015880600
C    0.874997053750    0.124975138650    0.499990801750
C    0.874914421300    0.125116133350    0.749974182400
C    0.874948155750    0.375012554200   -0.000013156450
C    0.874958596650    0.374993623750    0.249997376100
C    0.874785125400    0.375127226450    0.500019875050
C    0.874871004800    0.375087457850    0.749921722000
C    0.875013917350    0.625017508600    0.000087536450
C    0.874736255400    0.624971647400    0.250266720050
C    0.874947935500    0.625004395900    0.500093107500
C    0.875204526500    0.625104932500    0.750147202900
C    0.875010358800    0.875010580500    0.000071896150
C    0.874908678600    0.874937248350    0.250072117300
C    0.875082449750    0.875083393500    0.500072676100
C    0.875110389100    0.875084059050    0.750066797650
C    0.187453849500    0.062503851700    0.187496540200
C    0.187426759450    0.062411809950    0.437495579800
C    0.187467769300    0.062363204200    0.687498927000
C    0.187479520700    0.062450210750    0.937485821300
C    0.187483551050    0.312508349600    0.187531946750
C    0.187527803550    0.312460672700    0.437519017900
C    0.187420379350    0.312428687100    0.687498166450
C    0.187428471750    0.312454017550    0.937526119250
C    0.187157505700    0.562448477400    0.187153936600
C    0.187693975900    0.562396106400    0.437451788000
C    0.187768458950    0.562332336250    0.687328645000
C    0.187572397500    0.562444179250    0.937369730300
C    0.187463505100    0.812478553450    0.187460706900
C    0.187305207300    0.812671345750    0.437491240750
C    0.187726231200    0.812272145250    0.687368697650
C    0.187549208700    0.812430026450    0.937401004800
C    0.437451444600    0.062449137150    0.187475145700
C    0.437450874750    0.062460344450    0.437500152100
C    0.437481061100    0.062436878200    0.687506050150
C    0.437494382000    0.062375862950    0.937562058750
C    0.437402813050    0.312480500250    0.187477279450
C    0.437501380400    0.312774796900    0.437742993700
C    0.437687249650    0.311604430050    0.688368503450
C    0.437471514100    0.312480640450    0.937460247900
C    0.437430615400    0.562476504100    0.187497524300
C    0.438559478550    0.561714749800    0.686341273200
C    0.437524774800    0.562475441300    0.937434259250
C    0.437508317750    0.812814847700    0.187158907800
C    0.437525783500    0.812360483600    0.437469491350
C    0.437703900650    0.812293269900    0.687400684850
C    0.437539618900    0.812449350350    0.937437561550
C    0.687467439000    0.062455445150    0.187518559550
C    0.687446017600    0.062515058450    0.437530787100
C    0.687482957900    0.062568639850    0.687522213900
C    0.687483099400    0.062567667450    0.937501120900
C    0.687432208400    0.312494878450    0.187448014350
C    0.687828951950    0.312056477300    0.437660136950
C    0.687106857050    0.312868216800    0.687244511150
C    0.687452988050    0.312558291250    0.937454580400
C    0.687347376700    0.562489272650    0.187626928400
C    0.686289651100    0.561954556700    0.438562235400
C    0.688195754750    0.562841539600    0.688271172900
C    0.687527667500    0.562543417400    0.937568249450
C    0.687400019800    0.812382902800    0.187672205550
C    0.687446886700    0.812394682350    0.437669378050
C    0.687720068600    0.812807275900    0.687721865950
C    0.687569824600    0.812587637500    0.937643362850
C    0.937455182600    0.062491361850    0.187520275000
C    0.937466924400    0.062472391350    0.437526138450
C    0.937461636800    0.062562215150    0.687502831100
C    0.937485034000    0.062524351150    0.937509212800
C    0.937454743000    0.312496053800    0.187506312150
C    0.937381702050    0.312546664350    0.437527486200
C    0.937390124750    0.312576764200    0.687471976100
C    0.937429710700    0.312522695400    0.937475091400
C    0.937355573950    0.562477411050    0.187618625600
C    0.937430950300    0.562497848700    0.437552642350
C    0.937564699300    0.562535323900    0.687522197000
C    0.937539591900    0.562512074400    0.937545243200
C    0.937424470050    0.812467089800    0.187560588850
C    0.937467245900    0.812459048600    0.437554757300
C    0.937661414350    0.812562222200    0.687562935500
C    0.937561994600    0.812518429750    0.937555576000
C    0.062469292950    0.062489220850    0.062501943500
C    0.062451748000    0.062499405500    0.312507268650
C    0.062376358800    0.062390569000    0.562486285300
C    0.062491984000    0.062479812000    0.812491930850
C    0.062451154300    0.312494637350    0.062513333500
C    0.062434494700    0.312492222550    0.312506007950
C    0.062470202800    0.312497928900    0.562485772200
C    0.062418772000    0.312487015150    0.812491061250
C    0.062377025100    0.562472579300    0.062406652900
C    0.062470211950    0.562471480750    0.312512764900
C    0.062604907400    0.562450866800    0.562466036850
C    0.062577809950    0.562468445350    0.812450250900
C    0.062492914850    0.812478835100    0.062494326650
C    0.062420010450    0.812476281300    0.312501536550
C    0.062578029350    0.812434995050    0.562482573400
C    0.062633216300    0.812446557050    0.812460919550
C    0.312462338000    0.062479062600    0.062494773750
C    0.312437883100    0.062443056550    0.312482455100
C    0.312469135050    0.062405813400    0.562493357050
C    0.312476758350    0.062355652200    0.812509935100
C    0.312437609050    0.312468040400    0.062457779950
C    0.312585338000    0.312624610100    0.312641763650
C    0.311805197950    0.311651640000    0.562289081600
C    0.312451902000    0.312392897350    0.812623397650
C    0.312470251000    0.562477687900    0.062423088550
C    0.311805662700    0.562271556700    0.311668596450
C    0.313504164200    0.561880632600    0.561897202350
C    0.312822096050    0.562298175200    0.812124809500
C    0.312478454250    0.812492630900    0.062375463000
C    0.312453490400    0.812605262350    0.312411447100
C    0.312822288750    0.812107374450    0.562314810150
C    0.312624033050    0.812315069950    0.812332465100
C    0.562465320950    0.062438227450    0.062451379100
C    0.562444421800    0.062470528150    0.312515721250
C    0.562464900200    0.062514214800    0.562516413350
C    0.562487948300    0.062492600600    0.812530274050
C    0.562444291100    0.312502762850    0.062483640100
C    0.562196691600    0.311852792800    0.311868331650
C    0.561948244900    0.312932850400    0.562346086000
C    0.562356975950    0.312699078100    0.812264979500
C    0.562465769550    0.562502606200    0.062528535800
C    0.561949018650    0.562329003700    0.312949770350
C    0.562584521300    0.562536803050    0.812524097650
C    0.562488889200    0.812515401200    0.062508462100
C    0.562357933250    0.812250512600    0.312713843250
C    0.562584768600    0.812509620400    0.562551185150
C    0.562620698600    0.812697458900    0.812711025750
C    0.812472237600    0.062514637750    0.062526147800
C    0.812454914900    0.062467037300    0.312525613950
C    0.812462231850    0.062557529350    0.562521873150
C    0.812479133400    0.062608782950    0.812505282800
C    0.812454635000    0.312514342950    0.062479104100
C    0.812462469700    0.312505743150    0.312518801100
C    0.812084366050    0.312835933800    0.562433495000
C    0.812370319150    0.312601135400    0.812415582050
C    0.812462195650    0.562510067550    0.062570494750
C    0.812083916450    0.562418190450    0.312851886500
C    0.812461944300    0.562591745300    0.562606231450
C    0.812729764900    0.562612013200    0.812743735150
C    0.812479204250    0.812493279300    0.062621376700
C    0.812369671600    0.812402036200    0.312614474700
C    0.812729465250    0.812730893950    0.562624142850
C    0.812641113000    0.812623697950    0.812635531600
C    0.062462434600    0.187500085000    0.187512963250
C    0.062412880700    0.187477242600    0.437506374500
C    0.062402730400    0.187478463400    0.687500383150
C    0.062455204800    0.187490995650    0.937494834700
C    0.062412768850    0.437492815500    0.187491661950
C    0.062512866050    0.437486227750    0.437500822200
C    0.062541840350    0.437485119500    0.687456710800
C    0.062400761150    0.437500905300    0.937528051500
C    0.062403839200    0.687486192200    0.187494101150
C    0.062541973750    0.687441860750    0.437499837550
C    0.062647644300    0.687439434650    0.687454577050
C    0.062575385200    0.687470791150    0.937445736250
C    0.062456273000    0.937481338500    0.187504293550
C    0.062401675700    0.937512868600    0.437514501400
C    0.062575122400    0.937429982550    0.687484026000
C    0.062521632600    0.937477487800    0.937490662900
C    0.312459019450    0.187514587500    0.187529108250
C    0.312393506900    0.187423107200    0.437523792250
C    0.312440989900    0.187285612050    0.687545453900
C    0.312443682500    0.187417467150    0.937547252800
C    0.312394276250    0.437507030400    0.187439291750
C    0.313202355900    0.437711798500    0.437728605450
C    0.312069111900    0.437545885600    0.688051440750
C    0.312500948300    0.437466353100    0.937422397350
C    0.312442789000    0.687526982050    0.187305377800
C    0.312069463650    0.688034789850    0.437563085500
C    0.312995404900    0.687054477250    0.687071778150
C    0.312568815650    0.687429769200    0.937362449050
C    0.312445411950    0.937529970000    0.187435284750
C    0.312501500200    0.937406699100    0.437481512400
C    0.312568446050    0.937343864400    0.687445194900
C    0.312506490700    0.937412929300    0.937429829750
C    0.562409123150    0.187267575250    0.187280908500
C    0.562361053650    0.187540804250    0.437538030600
C    0.562378984450    0.187526611050    0.687523238600
C    0.562454910050    0.187542380350    0.937452172600
C    0.562361707750    0.437523041650    0.187555526700
C    0.561805515500    0.438332963950    0.686496057150
C    0.562488624500    0.437512401000    0.937471342250
C    0.562380843050    0.687506462200    0.187543776450
C    0.561806610450    0.686481402850    0.438348175250
C    0.562871494500    0.688159653450    0.688175222850
C    0.562544799550    0.687520570100    0.937539914650
C    0.562455586200    0.937438447950    0.187556406250
C    0.562488858500    0.937457931400    0.437525664900
C    0.562544486050    0.937525637700    0.687533712050
C    0.562515420400    0.937536904650    0.937550934700
C    0.812441435300    0.187506097950    0.187517637300
C    0.812565976500    0.187392432650    0.437541683850
C    0.812328510900    0.187680054950    0.687448854450
C    0.812447780000    0.187554209550    0.937470361300
C    0.812565344650    0.437528735850    0.187406500450
C    0.812250605950    0.437562444500    0.437577656100
C    0.812318650250    0.437697453650    0.687482048900
C    0.812464986200    0.437544652600    0.937500437350
C    0.812327770300    0.687435272500    0.187694604200
C    0.812318024500    0.687467597500    0.437712211900
C    0.812813313300    0.687711400500    0.687724353900
C    0.812590307900    0.687566423100    0.937649023350
C    0.812447900850    0.937458195850    0.187566070650
C    0.812464934950    0.937488005650    0.437556156400
C    0.812590009200    0.937636575000    0.687577874050
C    0.812526721650    0.937557184600    0.937568904350
C    0.187453157900    0.187482318550    0.062518707750
C    0.187483399500    0.187517077250    0.312522670950
C    0.187156848200    0.187136355950    0.562465350750
C    0.187461549050    0.187443048350    0.812495006150