&CONTROL
calculation = 'scf'
restart_mode = 'from_scratch'
prefix = 'pwscf'
pseudo_dir = './'
outdir = './'
tprnfor = .TRUE.
verbosity = 'high'
forc_conv_thr = 0.000039
/
&SYSTEM
ibrav = 0
nat = 511
ntyp = 2
ecutwfc = 80
tot_charge = -1
nspin = 2
tot_magnetization = 2
nbnd = 1032
/
&ELECTRONS
electron_maxstep = 600
conv_thr = 1.0d-10
mixing_mode = 'plain'
mixing_beta = 0.7
diagonalization = 'david'
diago_full_acc = .TRUE.
startingpot = 'atomic'
startingwfc = 'atomic+random'
/
&IONS
ion_dynamics='bfgs'
ion_positions='default'
/
ATOMIC_SPECIES
C  12.011   C_ONCV_PBE-1.2.upf
N  14.0067  N_ONCV_PBE-1.2.upf
CELL_PARAMETERS angstrom
14.272  0.0000  0.0000
0.0000  14.272  0.0000
0.0000  0.0000  14.272
K_POINTS gamma
ATOMIC_POSITIONS crystal
C   -0.000041134080   -0.000030642640   -0.000001598680
C   -0.000050141080    0.000029930960    0.250012728740
C   -0.000160191220   -0.000056206460    0.500008057640
C   -0.000041265080   -0.000095712240    0.749993418480
C   -0.000051411840    0.249983992460    0.000060755440
C    0.000035866840    0.250046827440    0.250076896200
C   -0.000024049200    0.250039904200    0.500072723500
C   -0.000131946680    0.249934968240    0.750055215040
C   -0.000160313980    0.499978669960   -0.000021675300
C   -0.000024682560    0.500041209340    0.250073490160
C    0.000054969100    0.499980952820    0.500014468060
C   -0.000011495340    0.499925210300    0.749945612400
C   -0.000040605400    0.749964328880   -0.000062319120
C   -0.000130921640    0.750022541920    0.249968693320
C   -0.000011542020    0.749912335120    0.499957005260
C    0.000034811200    0.749879995580    0.749912257020
C    0.249934969460   -0.000044484680   -0.000007659720
C    0.249901509640    0.000139787840    0.249968505000
C    0.249947674720   -0.000047412840    0.500014461260
C    0.249924047360   -0.000246003280    0.750025946720
C    0.249898752120    0.249931226480    0.000178334800
C    0.250168169740    0.250266492460    0.250303579940
C    0.249590135160    0.249481816280    0.500406101600
C    0.249902260640    0.249781041720    0.750205948760
C    0.249948251320    0.499979706060   -0.000008826760
C    0.249590401320    0.500364974880    0.249521587880
C    0.250982660120    0.499957163360    0.499999754840
C    0.249570705260    0.499544924400    0.750550390600
C    0.249926498200    0.749988273160   -0.000199762560
C    0.249906882720    0.750161753320    0.249827517200
C    0.249570346260    0.750508882840    0.499586134800
C    0.250259373900    0.749609383140    0.749652148540
C    0.499941346080   -0.000062854940   -0.000026280060
C    0.499961995900    0.000084484600    0.249987351280
C    0.499965998740   -0.000023145740    0.500015407820
C    0.499958323700   -0.000172304460    0.750028952240
C    0.499960993740    0.249954027000    0.000118132920
C    0.499944622400    0.249844169360    0.249879908600
C    0.499935435560    0.250173330200    0.500257748160
C    0.499703914880    0.248864393980    0.751158561840
C    0.499966889060    0.499982870580    0.000010897540
C    0.499937395480    0.500216318080    0.250214206320
C    0.499970370140    0.499743386340    0.749849508960
C    0.499960198500    0.749993501320   -0.000132535540
C    0.499707136880    0.751121825400    0.248901964380
C    0.499971878700    0.749812363360    0.499781240460
C    0.499975512060    0.749832759720    0.749868863400
C    0.749976212720   -0.000025760120    0.000002933880
C    0.749982170920   -0.000005391280    0.250006430840
C    0.749962711040   -0.000030608300    0.500014371140
C    0.749973623620   -0.000075364080    0.750008525340
C    0.749981700720    0.249978661480    0.000023492960
C    0.749980010400    0.250004490440    0.250034057520
C    0.750195708840    0.249668041980    0.500062348440
C    0.749788753100    0.250080700740    0.749945649860
C    0.749962837760    0.499986478740   -0.000000574980
C    0.750194830200    0.500026494520    0.249705717140
C    0.749583700360    0.499995459460    0.500033682420
C    0.749931328600    0.499934299220    0.750069184960
C    0.749974172220    0.749979896100   -0.000045019560
C    0.749786332980    0.749910251420    0.250116967540
C    0.749930199680    0.750035571240    0.499967589020
C    0.749994092880    0.749970912800    0.750000889040
C   -0.000019157600    0.125017839140    0.125046544860
C   -0.000014370620    0.125038190100    0.375043130200
C   -0.000135268700    0.124950767820    0.625055095760
C   -0.000070308640    0.124943263880    0.875029765480
C   -0.000015353500    0.375014089120    0.125069991140
C    0.000037993780    0.375061325620    0.375093968380
C   -0.000015358380    0.374976907780    0.625019509080
C   -0.000131304360    0.374945858500    0.875032313800
C   -0.000134605220    0.625024148080    0.124986162100
C   -0.000015777540    0.624986682920    0.375010403060
C    0.000058782840    0.624891249640    0.624924706040
C   -0.000016755820    0.624939383740    0.874905524220
C   -0.000069052400    0.874999733480    0.124974326440
C   -0.000129870560    0.874999056880    0.374976627620
C   -0.000017187060    0.874871457380    0.624969242180
C   -0.000006150200    0.874916816460    0.874947148580
C    0.249955890260    0.125084135300    0.125119414980
C    0.250019539860    0.125071841420    0.375125013060
C    0.249814897260    0.124707117540    0.625170877320
C    0.249904465860    0.124837711900    0.875114779940
C    0.250020160940    0.375089594660    0.125107696140
C    0.250797865980    0.375544202960    0.375584445480
C    0.249991838220    0.374751961180    0.625274203120
C    0.249792859760    0.374810221800    0.875286967960
C    0.249818863740    0.625129458600    0.124753478500
C    0.249994223700    0.625229193760    0.374797470980
C    0.250888684140    0.624343868200    0.624385161520
C    0.250151334160    0.624849995760    0.874774158760
C    0.249908397140    0.875075481660    0.124880592340
C    0.249796403600    0.875244196440    0.374851746800
C    0.250151589280    0.874730242640    0.624888257880
C    0.249978547340    0.874814488880    0.874854690000
C    0.499972707580    0.124953470840    0.124985971800
C    0.499978282620    0.125057674600    0.375106886920
C    0.499917731160    0.124858733820    0.625130962780
C    0.499883778920    0.124535960840    0.875432014040
C    0.499978849700    0.375073171160    0.125091714680
C    0.499859424340    0.375601024240    0.375642356080
C    0.498305387660    0.374172369360    0.625842727540
C    0.499936207880    0.374896633920    0.875106078220
C    0.499921957160    0.625091712460    0.124899648940
C    0.498307503620    0.625805331540    0.374210411680
C    0.501470915160    0.623872286680    0.623909256480
C    0.499995157200    0.624871442640    0.874916746720
C    0.499885992080    0.875394114240    0.124575551840
C    0.499938086400    0.875070979700    0.374932558080
C    0.499994764200    0.874880690920    0.624905444320
C    0.499972181120    0.874880621420    0.874916411620
C    0.749988418220    0.124997090280    0.125024688120
C    0.750020991160    0.124938552320    0.375031090860
C    0.749901529800    0.124954950560    0.625047195040
C    0.749942525780    0.124982134360    0.874998120620
C    0.750020262480    0.375002267060    0.124969100560
C    0.750070576140    0.374936673720    0.374971698400
C    0.749230374660    0.375435866100    0.624961930440
C    0.749900438180    0.374969989880    0.874988304540
C    0.749901516000    0.625015751360    0.124988227960
C    0.749231664980    0.624924823240    0.375473415420
C    0.750040614640    0.625041173180    0.625076249100
C    0.749985506660    0.624967285160    0.875009888020
C    0.749942415340    0.874967849620    0.125012788920
C    0.749899807580    0.874957378060    0.375000199120
C    0.749984528500    0.874979288580    0.624995668400
C    0.749986667600    0.874949556340    0.874978134820
C    0.124942489300    0.000035996400    0.125002309900
C    0.124886182940    0.000068187660    0.374998327000
C    0.124922075020   -0.000169557980    0.625021804840
C    0.124949550880   -0.000115101560    0.874989861000
C    0.125008978180    0.250054943100    0.125149735500
C    0.125125830420    0.250167908100    0.375155719340
C    0.124861776300    0.249835713660    0.625139113160
C    0.124891291580    0.249907302580    0.875100369420
C    0.124757145640    0.500087468060    0.124825522480
C    0.125231039400    0.500089529340    0.375096512320
C    0.125250306300    0.499848646960    0.624911560860
C    0.124757626800    0.499861550800    0.875184204520
C    0.124903495640    0.750033722860    0.124905430560
C    0.124862843880    0.750116508040    0.374893925940
C    0.125166682960    0.749728860880    0.624842054880
C    0.125046894480    0.749859126380    0.874818957340
C    0.374921893680    0.000108172180    0.124938337100
C    0.374955195660    0.000063578420    0.374999762260
C    0.374956901060   -0.000146591580    0.625025229680
C    0.374929203940   -0.000220731800    0.875035302200
C    0.374975255140    0.250097968940    0.125145669820
C    0.375244010920    0.250357257180    0.375523085360
C    0.374883822340    0.249451017380    0.625534850200
C    0.374864350440    0.249651901880    0.875399005640
C    0.374979555560    0.500114728100    0.125013966320
C    0.376250060640    0.501517067140    0.375550388880
C    0.376187880440    0.498077078700    0.624534310500
C    0.375025081400    0.499839864160    0.874977299020
C    0.374879937220    0.750272947840    0.124637348080
C    0.374836766360    0.750588635180    0.374492381240
C    0.375590846620    0.749234267220    0.624566392320
C    0.375016179120    0.749793268700    0.874774753020
C    0.624991296120    0.000008365820    0.124997772700
C    0.624973939960    0.000023539740    0.375011191940
C    0.624966549080   -0.000075568240    0.625013056520
C    0.624983561180   -0.000103820300    0.875010064260
C    0.624983342560    0.249968677020    0.125001031660
C    0.624984388320    0.249859059580    0.375060086860
C    0.624592023600    0.250103189900    0.624969036440
C    0.624963016640    0.250015218720    0.875050192800
C    0.624940200100    0.500036274240    0.125012285700
C    0.624317477140    0.499767795860    0.375257327120
C    0.623926530880    0.501477404960    0.624332429320
C    0.624946350080    0.499935451080    0.875014006240
C    0.624943687320    0.750024761840    0.124884366920
C    0.624717897440    0.749598236700    0.375367705540
C    0.625014102100    0.750128482040    0.625013069740
C    0.624982559120    0.749956081860    0.874975196780
C    0.874966280000   -0.000010948320    0.125008718240
C    0.874951171040   -0.000022027800    0.375010696940
C    0.874946061660   -0.000064861180    0.625012396820
C    0.874966522300   -0.000042538160    0.874995271980
C    0.874990035020    0.250005738060    0.125038707220
C    0.875045061840    0.249964346080    0.375040986480
C    0.874782281160    0.250132436400    0.625053249160
C    0.874904554360    0.249973730940    0.875003649080
C    0.875025284080    0.499995754320    0.124948390000
C    0.874855670540    0.500012374360    0.375093339080
C    0.874888016280    0.499968702960    0.624972534800
C    0.874939371620    0.499968519440    0.874971589340
C    0.874896053340    0.749980635260    0.125016761720
C    0.874833966500    0.749911085060    0.375014533560
C    0.875001468180    0.749946561500    0.624978105800
C    0.874992076340    0.749948016240    0.874957807460
C    0.124940894540    0.124969829380    0.000068686720
C    0.125009668780    0.125115967220    0.250086658060
C    0.124755315800    0.124786218360    0.500123134740
C    0.124900237880    0.124865810080    0.750068503500
C    0.124884216780    0.374965365000    0.000104533060
C    0.125125732260    0.375121106420    0.250203427100
C    0.125231318320    0.375059144240    0.500126951220
C    0.124859689960    0.374855113700    0.750155896600
C    0.124923631460    0.624988321680   -0.000128443180
C    0.124864924660    0.625101171800    0.249876219460
C    0.125249981500    0.624872406300    0.499887480160
C    0.125166619280    0.624804067200    0.749769292080
C    0.124950906040    0.874957331640   -0.000079468280
C    0.124894888220    0.875064283020    0.249943419420
C    0.124759829920    0.875144393080    0.499897694440
C    0.125046593360    0.874779227420    0.749894030020
C    0.374920198440    0.124898833780    0.000147047780
C    0.374975489620    0.125111043860    0.250132119940
C    0.374976898880    0.124974902360    0.500153539900
C    0.374876178300    0.124590269440    0.750316077040
C    0.374954604060    0.374965131020    0.000099191460
C    0.375244642280    0.375481897040    0.250398176620
C    0.376248532800    0.375510247640    0.501557312660
C    0.374834247200    0.374451093560    0.750628528060
C    0.374959107820    0.624988832560   -0.000104571820
C    0.374887082660    0.625492710200    0.249493577340
C    0.376188975520    0.624495755940    0.498116426140
C    0.375590965220    0.624526743960    0.749274337180
C    0.374930865820    0.874995790880   -0.000176522200
C    0.374867650080    0.875356639560    0.249695337440
C    0.375025559080    0.874939311900    0.499877429840
C    0.375015731120    0.874731791620    0.749831808700
C    0.624990990360    0.124967441220    0.000038790140
C    0.624983774800    0.124970578700    0.249998492540
C    0.624939011740    0.124978722140    0.500069247480
C    0.624941552120    0.124847905360    0.750059866920
C    0.624973603000    0.374981328460    0.000054163420
C    0.624984826960    0.375024924500    0.249894574140
C    0.624314750220    0.375219085520    0.499806687300
C    0.624716175600    0.375332066980    0.749633166340
C    0.624967713440    0.624982645600   -0.000043045520
C    0.624593428760    0.624928703320    0.250143888620
C    0.623928013120    0.624296963680    0.501512979040
C    0.625014696940    0.624978116100    0.750164843800
C    0.624983909460    0.874978123900   -0.000070845420
C    0.624963900200    0.875018100920    0.250048326920
C    0.624946217600    0.874981934000    0.499966976120
C    0.624982231000    0.874943409860    0.749986341020
C    0.874965982520    0.124981059760    0.000017192560
C    0.874990535660    0.125010442380    0.250032878420
C    0.875026746000    0.124915972480    0.500024677200
C    0.874896741260    0.124984205400    0.750010868980
C    0.874950519440    0.374983661980    0.000007921880
C    0.875044676840    0.375010670360    0.249995744960
C    0.874856221180    0.375057110600    0.500047275640
C    0.874835959860    0.374981372920    0.749944152380
C    0.874946509940    0.624984838060   -0.000033764100
C    0.874779753120    0.625019165080    0.250168942720
C    0.874887415040    0.624939165280    0.500002503280
C    0.875001991300    0.624948377360    0.749977307860
C    0.874966716740    0.874967251620   -0.000013540320
C    0.874904189360    0.874972742760    0.250003534100
C    0.874938701460    0.874940948260    0.499996587920
C    0.874991687580    0.874928491260    0.749975757680
C    0.187442653420    0.062602819660    0.187545105500
C    0.187410400940    0.062485199420    0.437553614000
C    0.187381561920    0.062268761880    0.687564613460
C    0.187424479140    0.062412464160    0.937543350800
C    0.187574484200    0.312615257380    0.187690632480
C    0.187780810220    0.312621066640    0.437729721260
C    0.187385443540    0.312340017820    0.687662422080
C    0.187357456960    0.312409032960    0.937693647240
C    0.187127684440    0.562556229380    0.187119120000
C    0.187870167860    0.562495996960    0.437475335580
C    0.187821354240    0.562229496520    0.687337013920
C    0.187468624880    0.562420662260    0.937423596420
C    0.187400667220    0.812579286880    0.187393950140
C    0.187102089840    0.812904711260    0.437446328540
C    0.187644872300    0.812210013740    0.687324242120
C    0.187460453880    0.812405527080    0.937343991200
C    0.437447686720    0.062574797300    0.187526525140
C    0.437441796100    0.062509930000    0.437560071540
C    0.437426616080    0.062298672160    0.687610508140
C    0.437462659680    0.062240252020    0.937695178660
C    0.437450815620    0.312668654160    0.187659563580
C    0.437703027160    0.312953335820    0.438282925680
C    0.437739736840    0.310675897620    0.689445907960
C    0.437426313840    0.312375278620    0.937661242540
C    0.437424505940    0.562688951440    0.187398696620
C    0.438239685160    0.561396642640    0.686565201100
C    0.437452936740    0.562426354360    0.937467345380
C    0.437487304940    0.813249124340    0.186750965440
C    0.437419565780    0.812614250120    0.437284470220
C    0.437548156040    0.812191368940    0.687248658080
C    0.437465011360    0.812399807220    0.937335218260
C    0.687489026860    0.062490151360    0.187503451520
C    0.687466414620    0.062486308960    0.437545966880
C    0.687468982400    0.062396386160    0.687563212200
C    0.687467368860    0.062459748380    0.937506813440
C    0.687504112960    0.312498877060    0.187451767540
C    0.688150985760    0.311760805420    0.437674684560
C    0.687089280120    0.312628979760    0.687419651360
C    0.687464998020    0.312456721040    0.937551229260
C    0.687381972800    0.562606134080    0.187481689320
C    0.686441320660    0.561972179200    0.438246315600
C    0.687635072600    0.562634610780    0.687816067760
C    0.687463791800    0.562459321360    0.937496289660
C    0.687399405480    0.812475836060    0.187515209340
C    0.687359546720    0.812434754620    0.437465325600
C    0.687520867080    0.812536231140    0.687525180720
C    0.687486807820    0.812476907580    0.937461634800
C    0.937469823520    0.062511225400    0.187522269860
C    0.937466863220    0.062471914580    0.437538876560
C    0.937412065600    0.062446660060    0.687514738940
C    0.937454746820    0.062462571040    0.937512767540
C    0.937522352640    0.312509908760    0.187544262720
C    0.937472743700    0.312533738780    0.437560642680
C    0.937396549700    0.312501063120    0.687510570740
C    0.937414813160    0.312473970640    0.937523708640
C    0.937389632380    0.562500411580    0.187579568120
C    0.937459417900    0.562480126520    0.437519837060
C    0.937487784700    0.562439896960    0.687450664000
C    0.937427014260    0.562468502060    0.937440557780
C    0.937400321800    0.812494473520    0.187487764840
C    0.937406478900    0.812423073220    0.437501361720
C    0.937504973800    0.812415909460    0.687470287980
C    0.937476663060    0.812454385140    0.937461247220
C    0.062449575980    0.062497394540    0.062527927500
C    0.062462564120    0.062576919720    0.312535885840
C    0.062304040120    0.062338126400    0.562519641980
C    0.062431310800    0.062402084000    0.812521892040
C    0.062461133640    0.312505591720    0.062610352520
C    0.062562661900    0.312567532540    0.312600589500
C    0.062543187040    0.312491779260    0.562554786460
C    0.062360029960    0.312422256400    0.812572912880
C    0.062305646240    0.562486750380    0.062376736160
C    0.062543221600    0.562520486980    0.312527375860
C    0.062653492440    0.562418032040    0.562454420560
C    0.062505670260    0.562407376580    0.812428870940
C    0.062433550440    0.812490432840    0.062436924760
C    0.062363016240    0.812537411600    0.312457106360
C    0.062506205220    0.812392255500    0.562441272700
C    0.062521840140    0.812365457500    0.812399921900
C    0.312428067680    0.062528110760    0.062565817520
C    0.312437106660    0.062583192140    0.312544083660
C    0.312422657220    0.062388613280    0.562572992900
C    0.312397623280    0.062208524240    0.812618205920
C    0.312436440540    0.312509500980    0.062618540900
C    0.312796538500    0.312890812540    0.312931975460
C    0.311895724120    0.311527182240    0.562655006600
C    0.312342544500    0.312200954340    0.812969982700
C    0.312425338300    0.562535392540    0.062430115640
C    0.311896846520    0.562612949640    0.311567905720
C    0.314011552620    0.561667041880    0.561706789680
C    0.312655907860    0.562168649300    0.812265925440
C    0.312401701840    0.812576660440    0.062256088360
C    0.312346374860    0.812926428580    0.312245472340
C    0.312656370340    0.812224078520    0.562208546580
C    0.312535187860    0.812233363780    0.812275103740
C    0.562469316340    0.062452513680    0.062484076240
C    0.562455527300    0.062543935680    0.312534465500
C    0.562451674400    0.062435784000    0.562575325560
C    0.562454155660    0.062301144020    0.812620925100
C    0.562455222020    0.312503379340    0.062575435160
C    0.562433256600    0.312009950360    0.312047259000
C    0.561829308600    0.312640389700    0.562784141240
C    0.562309747300    0.312360674580    0.812602340440
C    0.562453766440    0.562542203800    0.062470193600
C    0.561831143200    0.562743132520    0.312681033980
C    0.562441567860    0.562327073460    0.812523839140
C    0.562456412420    0.812585240060    0.062339225620
C    0.562312033620    0.812567614280    0.312396109540
C    0.562442155780    0.812489092340    0.562361563900
C    0.562499154660    0.812394932480    0.812427480320
C    0.812474618440    0.062485671400    0.062513281520
C    0.812486151840    0.062475855480    0.312514866920
C    0.812457629420    0.062456974420    0.562535589300
C    0.812443639340    0.062463194500    0.812506395100
C    0.812485485680    0.312487838920    0.062504807400
C    0.812583754220    0.312471778660    0.312503100940
C    0.812168876560    0.312689131060    0.562493397220
C    0.812365966060    0.312480255900    0.812474587220
C    0.812457545340    0.562507264260    0.062488099780
C    0.812167789120    0.562456678900    0.312727416140
C    0.812374690700    0.562458930660    0.562493687620
C    0.812472473880    0.562478346100    0.812505987080
C    0.812443805180    0.812477592300    0.062493413900
C    0.812364409140    0.812442074380    0.312512257620
C    0.812471749120    0.812475172400    0.562507443260
C    0.812500878220    0.812459089100    0.812487477260
C    0.062503427020    0.187553608820    0.187584509620
C    0.062487800020    0.187531556300    0.437579514280
C    0.062363642960    0.187407233360    0.687568113820
C    0.062424455480    0.187452021820    0.937564978760
C    0.062487531580    0.437546990880    0.187566151540
C    0.062636026640    0.437526667100    0.437561678380
C    0.062550616320    0.437436394040    0.687492088100
C    0.062300020300    0.437478339400    0.937613552860
C    0.062366319480    0.687534030340    0.187444768160
C    0.062550949080    0.687456442380    0.437471699160
C    0.062586029040    0.687364556000    0.687400878160
C    0.062478282180    0.687437843060    0.937373893080
C    0.062427033160    0.937532569680    0.187483928380
C    0.062302223620    0.937577102700    0.437510960240
C    0.062477650060    0.937336082800    0.687469609500
C    0.062456054920    0.937436626140    0.937468254780
C    0.312496846820    0.187648978680    0.187683822880
C    0.312459861720    0.187529523580    0.437741185300
C    0.312369523540    0.187061989420    0.687775921760
C    0.312384212040    0.187331050120    0.937744371960
C    0.312461695560    0.437700962460    0.187568395900
C    0.313979488620    0.438208050200    0.438248382680
C    0.311791136860    0.437400472920    0.688684949080
C    0.312424000660    0.437413952640    0.937570405420
C    0.312373862380    0.687731566920    0.187109465020
C    0.311791988060    0.688644975720    0.437441738680
C    0.312934217200    0.686963582600    0.687005082360
C    0.312481965600    0.687409276980    0.937330118220
C    0.312388371120    0.937702872240    0.187373819360
C    0.312425337820    0.937532691820    0.437450312560
C    0.312481074360    0.937285495460    0.687446293060
C    0.312435063960    0.937374521000    0.937415091880
C    0.562461758180    0.187391837360    0.187423845560
C    0.562411860560    0.187502512500    0.437682315020
C    0.562341421400    0.187240898280    0.687804048360
C    0.562446395180    0.187396582320    0.937621456540
C    0.562413420600    0.437646356940    0.187537891180
C    0.561614480320    0.437696059920    0.686936690980
C    0.562457975840    0.437423274620    0.937556345980
C    0.562345879240    0.687763786400    0.187282126040
C    0.561617085800    0.686901513660    0.437732560040
C    0.562706477340    0.687548430880    0.687585780640
C    0.562462609120    0.687446769240    0.937428287540
C    0.562448006740    0.937588508980    0.187430244480
C    0.562458520640    0.937524127740    0.437455086980
C    0.562461851120    0.937394007460    0.687478293120
C    0.562476510060    0.937420549460    0.937454220180
C    0.812490228520    0.187502871860    0.187530552300
C    0.812651848860    0.187311411080    0.437567389180
C    0.812345295500    0.187534043700    0.687516619840
C    0.812448148200    0.187472458720    0.937510439800
C    0.812650333820    0.437536329380    0.187345178000
C    0.812350577360    0.437507577380    0.437544074020
C    0.812252298580    0.437532721040    0.687443944400
C    0.812437336060    0.437477116040    0.937486107580
C    0.812343513860    0.687484028760    0.187568964700
C    0.812250786980    0.687409265240    0.437568131040
C    0.812550726500    0.687500081840    0.687531161600
C    0.812483312340    0.687478663820    0.937475222800
C    0.812448435440    0.937481246920    0.187500911360
C    0.812437214460    0.937456268700    0.437504704160
C    0.812482592660    0.937445345360    0.687506134900
C    0.812474281500    0.937465116260    0.937493232460
C    0.187440985180    0.187510976340    0.062638475580
C    0.187574128880    0.187654952680    0.312649604820
C    0.187126099440    0.187076904040    0.562596722620
C    0.187395957300    0.187351554220    0.812618809760
C    0.187410951780    0.437519466920    0.062522008660
C    0.187780637180    0.437690161020    0.312660024040
C    0.187870423540    0.437432973460    0.562538394200
C    0.187100261720    0.437405443100    0.812946512740
C    0.187385337560    0.687526798500    0.062314071960
C    0.187389530660    0.687619193240    0.312384512220
C    0.187821136000    0.687294889320    0.562270787360
C    0.187644539340    0.687284976360    0.812253035980
C    0.187427047620    0.937507713680    0.062449793320
C    0.187361545760    0.937653959920    0.312446991280
C    0.187469210800    0.937383036180    0.562455777740
C    0.187459160240    0.937302455240    0.812441968800
C    0.437446879640    0.187492521940    0.062608884460
C    0.437450146940    0.187623945660    0.312704461040
C    0.437420611860    0.187356684660    0.562731145080
C    0.437483931340    0.186711072720    0.813287253380
C    0.437442923420    0.437525920060    0.062544681720
C    0.437704022120    0.438240794240    0.312995323260
C    0.437417287380    0.437244834140    0.812652152200
C    0.437430512400    0.687571560340    0.062342322040
C    0.437742691320    0.689407705120    0.310715008940
C    0.438240450000    0.686527428180    0.561434904240
C    0.437548001200    0.687211440520    0.812231053780
C    0.437465061120    0.937655504700    0.062282319660
C    0.437428562120    0.937624659220    0.312412130340
C    0.437452594740    0.937430601860    0.562460525000
C    0.437463825560    0.937294219540    0.812436351780
C    0.687488651780    0.187475176200    0.062518953960
C    0.687504415480    0.187420831340    0.312529317580
C    0.687380700880    0.187446118280    0.562641141320
C    0.687399216600    0.187481313700    0.812508772540
C    0.687466618220    0.437516688480    0.062516764840
C    0.688152120800    0.437637990600    0.311796575380
C    0.686439499460    0.438209116920    0.562009377680
C    0.687359774080    0.437432859600    0.812467338060
C    0.687470251840    0.687532432360    0.062429003360
C    0.687089580800    0.687381147720    0.312668002120
C    0.687635204600    0.687780202360    0.562670827740
C    0.687521431200    0.687494789240    0.812568457860
C    0.687467614380    0.937477023400    0.062489832420
C    0.687465553500    0.937521180420    0.312486291400
C    0.687463346160    0.937465707700    0.562488175120
C    0.687486506580    0.937431283680    0.812506078380
C    0.937469148040    0.187494651100    0.062539899560
C    0.937522860480    0.187514285120    0.312538576960
C    0.937391211420    0.187545324880    0.562531092820
C    0.937399587000    0.187456574400    0.812524958160
C    0.937465775220    0.437510897720    0.062503764940
C    0.937472360700    0.437528896440    0.312566737340
C    0.937459721620    0.437486334540    0.562512884240
C    0.937406945260    0.437471052600    0.812455174060
C    0.937412575800    0.687485782060    0.062479458220
C    0.937395165180    0.687478228540    0.312534581520
C    0.937487712300    0.687418556560    0.562471569480
C    0.937505263400    0.687440781740    0.812447182180
C    0.937455438100    0.937484396220    0.062491264040
C    0.937415886760    0.937492728560    0.312502537880
C    0.937426529100    0.937408271220    0.562496711180
C    0.937476234020    0.937431152580    0.812482704380
C    0.569205960340    0.431154751840    0.431192080880
C    0.432759640520    0.429890448040    0.570538404580
C    0.432760973640    0.570501408220    0.429928024040
N    0.565651473960    0.565409087040    0.565444372480
