&CONTROL
calculation = 'scf'
restart_mode = 'from_scratch'
prefix = 'pwscf'
pseudo_dir = './'
outdir = './'
wf_collect = .TRUE.
tprnfor = .TRUE.
verbosity = 'high'
forc_conv_thr = 0.000039
/
&SYSTEM
ibrav = 0
nat = 511
ntyp = 2
ecutwfc = 80
tot_charge = -1
nspin = 2
tot_magnetization = 2
occupations = 'from_input'
nbnd = 1032
/
&ELECTRONS
electron_maxstep = 100
conv_thr = 1.0d-10
mixing_mode = 'plain'
mixing_beta = 0.7
diagonalization = 'david'
diago_full_acc = .TRUE.
startingpot = 'atomic'
startingwfc = 'atomic+random'
/
&IONS
ion_dynamics='bfgs'
ion_positions='default'
/
ATOMIC_SPECIES
C  12.011   C_ONCV_PBE-1.2.upf
N  14.0067  N_ONCV_PBE-1.2.upf
CELL_PARAMETERS angstrom
14.272  0.0000  0.0000
0.0000  14.272  0.0000
0.0000  0.0000  14.272
K_POINTS gamma
OCCUPATIONS
1 1 1 1 1 1 1 1 1 1
1 1 1 1 1 1 1 1 1 1
1 1 1 1 1 1 1 1 1 1
1 1 1 1 1 1 1 1 1 1
1 1 1 1 1 1 1 1 1 1
1 1 1 1 1 1 1 1 1 1
1 1 1 1 1 1 1 1 1 1
1 1 1 1 1 1 1 1 1 1
1 1 1 1 1 1 1 1 1 1
1 1 1 1 1 1 1 1 1 1
1 1 1 1 1 1 1 1 1 1
1 1 1 1 1 1 1 1 1 1
1 1 1 1 1 1 1 1 1 1
1 1 1 1 1 1 1 1 1 1
1 1 1 1 1 1 1 1 1 1
1 1 1 1 1 1 1 1 1 1
1 1 1 1 1 1 1 1 1 1
1 1 1 1 1 1 1 1 1 1
1 1 1 1 1 1 1 1 1 1
1 1 1 1 1 1 1 1 1 1
1 1 1 1 1 1 1 1 1 1
1 1 1 1 1 1 1 1 1 1
1 1 1 1 1 1 1 1 1 1
1 1 1 1 1 1 1 1 1 1
1 1 1 1 1 1 1 1 1 1
1 1 1 1 1 1 1 1 1 1
1 1 1 1 1 1 1 1 1 1
1 1 1 1 1 1 1 1 1 1
1 1 1 1 1 1 1 1 1 1
1 1 1 1 1 1 1 1 1 1
1 1 1 1 1 1 1 1 1 1
1 1 1 1 1 1 1 1 1 1
1 1 1 1 1 1 1 1 1 1
1 1 1 1 1 1 1 1 1 1
1 1 1 1 1 1 1 1 1 1
1 1 1 1 1 1 1 1 1 1
1 1 1 1 1 1 1 1 1 1
1 1 1 1 1 1 1 1 1 1
1 1 1 1 1 1 1 1 1 1
1 1 1 1 1 1 1 1 1 1
1 1 1 1 1 1 1 1 1 1
1 1 1 1 1 1 1 1 1 1
1 1 1 1 1 1 1 1 1 1
1 1 1 1 1 1 1 1 1 1
1 1 1 1 1 1 1 1 1 1
1 1 1 1 1 1 1 1 1 1
1 1 1 1 1 1 1 1 1 1
1 1 1 1 1 1 1 1 1 1
1 1 1 1 1 1 1 1 1 1
1 1 1 1 1 1 1 1 1 1
1 1 1 1 1 1 1 1 1 1
1 1 1 1 1 1 1 1 1 1
1 1 1 1 1 1 1 1 1 1
1 1 1 1 1 1 1 1 1 1
1 1 1 1 1 1 1 1 1 1
1 1 1 1 1 1 1 1 1 1
1 1 1 1 1 1 1 1 1 1
1 1 1 1 1 1 1 1 1 1
1 1 1 1 1 1 1 1 1 1
1 1 1 1 1 1 1 1 1 1
1 1 1 1 1 1 1 1 1 1
1 1 1 1 1 1 1 1 1 1
1 1 1 1 1 1 1 1 1 1
1 1 1 1 1 1 1 1 1 1
1 1 1 1 1 1 1 1 1 1
1 1 1 1 1 1 1 1 1 1
1 1 1 1 1 1 1 1 1 1
1 1 1 1 1 1 1 1 1 1
1 1 1 1 1 1 1 1 1 1
1 1 1 1 1 1 1 1 1 1
1 1 1 1 1 1 1 1 1 1
1 1 1 1 1 1 1 1 1 1
1 1 1 1 1 1 1 1 1 1
1 1 1 1 1 1 1 1 1 1
1 1 1 1 1 1 1 1 1 1
1 1 1 1 1 1 1 1 1 1
1 1 1 1 1 1 1 1 1 1
1 1 1 1 1 1 1 1 1 1
1 1 1 1 1 1 1 1 1 1
1 1 1 1 1 1 1 1 1 1
1 1 1 1 1 1 1 1 1 1
1 1 1 1 1 1 1 1 1 1
1 1 1 1 1 1 1 1 1 1
1 1 1 1 1 1 1 1 1 1
1 1 1 1 1 1 1 1 1 1
1 1 1 1 1 1 1 1 1 1
1 1 1 1 1 1 1 1 1 1
1 1 1 1 1 1 1 1 1 1
1 1 1 1 1 1 1 1 1 1
1 1 1 1 1 1 1 1 1 1
1 1 1 1 1 1 1 1 1 1
1 1 1 1 1 1 1 1 1 1
1 1 1 1 1 1 1 1 1 1
1 1 1 1 1 1 1 1 1 1
1 1 1 1 1 1 1 1 1 1
1 1 1 1 1 1 1 1 1 1
1 1 1 1 1 1 1 1 1 1
1 1 1 1 1 1 1 1 1 1
1 1 1 1 1 1 1 1 1 1
1 1 1 1 1 1 1 1 1 1
1 1 1 1 1 1 1 1 1 1
1 1 1 1 1 1 1 1 1 1
1 1 1 1 0 0 0 0 0 0
0 0
1 1 1 1 1 1 1 1 1 1
1 1 1 1 1 1 1 1 1 1
1 1 1 1 1 1 1 1 1 1
1 1 1 1 1 1 1 1 1 1
1 1 1 1 1 1 1 1 1 1
1 1 1 1 1 1 1 1 1 1
1 1 1 1 1 1 1 1 1 1
1 1 1 1 1 1 1 1 1 1
1 1 1 1 1 1 1 1 1 1
1 1 1 1 1 1 1 1 1 1
1 1 1 1 1 1 1 1 1 1
1 1 1 1 1 1 1 1 1 1
1 1 1 1 1 1 1 1 1 1
1 1 1 1 1 1 1 1 1 1
1 1 1 1 1 1 1 1 1 1
1 1 1 1 1 1 1 1 1 1
1 1 1 1 1 1 1 1 1 1
1 1 1 1 1 1 1 1 1 1
1 1 1 1 1 1 1 1 1 1
1 1 1 1 1 1 1 1 1 1
1 1 1 1 1 1 1 1 1 1
1 1 1 1 1 1 1 1 1 1
1 1 1 1 1 1 1 1 1 1
1 1 1 1 1 1 1 1 1 1
1 1 1 1 1 1 1 1 1 1
1 1 1 1 1 1 1 1 1 1
1 1 1 1 1 1 1 1 1 1
1 1 1 1 1 1 1 1 1 1
1 1 1 1 1 1 1 1 1 1
1 1 1 1 1 1 1 1 1 1
1 1 1 1 1 1 1 1 1 1
1 1 1 1 1 1 1 1 1 1
1 1 1 1 1 1 1 1 1 1
1 1 1 1 1 1 1 1 1 1
1 1 1 1 1 1 1 1 1 1
1 1 1 1 1 1 1 1 1 1
1 1 1 1 1 1 1 1 1 1
1 1 1 1 1 1 1 1 1 1
1 1 1 1 1 1 1 1 1 1
1 1 1 1 1 1 1 1 1 1
1 1 1 1 1 1 1 1 1 1
1 1 1 1 1 1 1 1 1 1
1 1 1 1 1 1 1 1 1 1
1 1 1 1 1 1 1 1 1 1
1 1 1 1 1 1 1 1 1 1
1 1 1 1 1 1 1 1 1 1
1 1 1 1 1 1 1 1 1 1
1 1 1 1 1 1 1 1 1 1
1 1 1 1 1 1 1 1 1 1
1 1 1 1 1 1 1 1 1 1
1 1 1 1 1 1 1 1 1 1
1 1 1 1 1 1 1 1 1 1
1 1 1 1 1 1 1 1 1 1
1 1 1 1 1 1 1 1 1 1
1 1 1 1 1 1 1 1 1 1
1 1 1 1 1 1 1 1 1 1
1 1 1 1 1 1 1 1 1 1
1 1 1 1 1 1 1 1 1 1
1 1 1 1 1 1 1 1 1 1
1 1 1 1 1 1 1 1 1 1
1 1 1 1 1 1 1 1 1 1
1 1 1 1 1 1 1 1 1 1
1 1 1 1 1 1 1 1 1 1
1 1 1 1 1 1 1 1 1 1
1 1 1 1 1 1 1 1 1 1
1 1 1 1 1 1 1 1 1 1
1 1 1 1 1 1 1 1 1 1
1 1 1 1 1 1 1 1 1 1
1 1 1 1 1 1 1 1 1 1
1 1 1 1 1 1 1 1 1 1
1 1 1 1 1 1 1 1 1 1
1 1 1 1 1 1 1 1 1 1
1 1 1 1 1 1 1 1 1 1
1 1 1 1 1 1 1 1 1 1
1 1 1 1 1 1 1 1 1 1
1 1 1 1 1 1 1 1 1 1
1 1 1 1 1 1 1 1 1 1
1 1 1 1 1 1 1 1 1 1
1 1 1 1 1 1 1 1 1 1
1 1 1 1 1 1 1 1 1 1
1 1 1 1 1 1 1 1 1 1
1 1 1 1 1 1 1 1 1 1
1 1 1 1 1 1 1 1 1 1
1 1 1 1 1 1 1 1 1 1
1 1 1 1 1 1 1 1 1 1
1 1 1 1 1 1 1 1 1 1
1 1 1 1 1 1 1 1 1 1
1 1 1 1 1 1 1 1 1 1
1 1 1 1 1 1 1 1 1 1
1 1 1 1 1 1 1 1 1 1
1 1 1 1 1 1 1 1 1 1
1 1 1 1 1 1 1 1 1 1
1 1 1 1 1 1 1 1 1 1
1 1 1 1 1 1 1 1 1 1
1 1 1 1 1 1 1 1 1 1
1 1 1 1 1 1 1 1 1 1
1 1 1 1 1 1 1 1 1 1
1 1 1 1 1 1 1 1 1 1
1 1 1 1 1 1 1 1 1 1
1 1 1 1 1 1 1 1 1 1
1 1 1 1 1 1 1 1 1 1
1 1 1 1 1 1 1 1 1 1
1 0 1 0 0 0 0 0 0 0
0 0
ATOMIC_POSITIONS crystal
C   -0.000007134160   -0.000003635680    0.000006051640
C   -0.000052487960   -0.000025785280    0.250014834180
C   -0.000054842340   -0.000020171420    0.500007484280
C    0.000036442040    0.000018302320    0.749996059760
C   -0.000052910880    0.250005245420   -0.000015515120
C   -0.000059379320    0.249988820880    0.249998849800
C   -0.000100093600    0.250041842600    0.500001677900
C   -0.000096325160    0.250024602080    0.749978746480
C   -0.000054883260    0.499997677720   -0.000008663700
C   -0.000100310720    0.499991165180    0.250053041920
C   -0.000008020500    0.499995914340    0.500007089420
C    0.000050391620    0.500003394300    0.749969453600
C    0.000036664600    0.749986364560    0.000029435360
C   -0.000095987480    0.749967863440    0.250035848440
C    0.000050368060    0.749958363840    0.500014000620
C    0.000177769600    0.750006284060    0.750017040540
C    0.249988908420   -0.000050593160   -0.000038324840
C    0.249940384280   -0.000024730320    0.249962717400
C    0.250011101440   -0.000107863480    0.499982261820
C    0.250020963120   -0.000134333360    0.749968999040
C    0.249939464440    0.249950284560   -0.000011886000
C    0.250022345980    0.250055114220    0.250067483380
C    0.249525725720    0.249489618760    0.500097078400
C    0.249971746480    0.249931334840    0.749983261320
C    0.250011295640    0.499970661420   -0.000095018120
C    0.249525806440    0.500083364160    0.249502863960
C    0.250537608840    0.499832422320    0.499846611480
C    0.249851637020    0.499756667600    0.750152213000
C    0.250021781400    0.749956438520   -0.000118929120
C    0.249973281840    0.749968534840    0.249946822000
C    0.249851510020    0.750138379080    0.499770412400
C    0.250350608700    0.749708158580    0.749722414380
C    0.499985249760   -0.000022389580   -0.000010200620
C    0.499964780700   -0.000063899000    0.250024326960
C    0.499990940980   -0.000034036780    0.500007399340
C    0.500014444100   -0.000003199420    0.749997232880
C    0.499964437980    0.250013218200   -0.000052693560
C    0.499943256000    0.249610401120    0.249622310200
C    0.499825183720    0.250267840200    0.499932615920
C    0.499809679760    0.249616199260    0.750354932080
C    0.499991234420    0.499996552260   -0.000022707020
C    0.499825830360    0.499918808560    0.250281448240
C    0.500100560380    0.500024875780    0.749635882720
C    0.500015073700    0.749985415240    0.000010046220
C    0.499810753760    0.750342694600    0.249628714060
C    0.500101059900    0.749623501520    0.500037503820
C    0.500263293020    0.750288406840    0.750300451400
C    0.749990327840    0.000041616360    0.000051186360
C    0.749954408440   -0.000054133360    0.250048428280
C    0.749975154480    0.000044033300    0.500033124580
C    0.750037490740    0.000141049840    0.750049127980
C    0.749954245040    0.250039167160   -0.000044507280
C    0.749907951200    0.250005817080    0.250015677440
C    0.750033979080    0.249884083260    0.499929150280
C    0.749767945900    0.250291052980    0.749820244820
C    0.749975192720    0.500023819780    0.000054037740
C    0.750033686200    0.499917197640    0.249896636980
C    0.749547270520    0.500108904820    0.500121657140
C    0.750321261800    0.500249536740    0.750367219920
C    0.750037676940    0.750039582900    0.000151170680
C    0.749767143860    0.749808449340    0.250303142580
C    0.750320888160    0.750356012680    0.500260643340
C    0.750224406160    0.750216674800    0.750226676880
C   -0.000040832800    0.124992823380    0.125002398620
C   -0.000063470140    0.124986262900    0.374997326200
C   -0.000098408300    0.125038314540    0.625004503520
C   -0.000035221280    0.125018103560    0.874983501560
C   -0.000063797100    0.374987633840    0.124996862580
C   -0.000087213340    0.375019111140    0.375030000060
C   -0.000043873260    0.375027120660    0.624974904360
C   -0.000062583720    0.375004078500    0.874975086200
C   -0.000098191140    0.624994188960    0.125050111300
C   -0.000044020980    0.624963965640    0.375038290420
C    0.000107872680    0.624978824680    0.624989981480
C    0.000110525860    0.625007024380    0.875009891740
C   -0.000034803200    0.874973495560    0.125028463080
C   -0.000062111120    0.874964004560    0.375014345540
C    0.000110378780    0.874998537460    0.625016979860
C    0.000086555400    0.874999958620    0.875010074660
C    0.249959490820    0.124988206900    0.124999969460
C    0.249965527220    0.124929996940    0.374996319620
C    0.249893172220    0.124828490580    0.625013430040
C    0.249970640820    0.124932315100    0.874981916180
C    0.249965729580    0.374984498820    0.124941941180
C    0.250275829660    0.375172725120    0.375186139960
C    0.249969486140    0.374836843660    0.624960886640
C    0.249929982720    0.374924369000    0.875027070520
C    0.249894492380    0.624999617800    0.124843926900
C    0.249970273300    0.624945885520    0.374852012260
C    0.250645819180    0.624500063800    0.624513830240
C    0.250274818720    0.624908466720    0.874728183320
C    0.249971952580    0.874968821420    0.124946602580
C    0.249931158000    0.875012820680    0.374938222000
C    0.250274897760    0.874713551280    0.624921230760
C    0.250073581980    0.874879427760    0.874892822800
C    0.499974839660    0.124851824280    0.124862654600
C    0.499937843740    0.124992096600    0.375000255640
C    0.499926504120    0.125031957740    0.624959140860
C    0.499938999640    0.124856921080    0.875127902680
C    0.499938026100    0.374989013720    0.125003427960
C    0.500099656980    0.375232244080    0.375246015360
C    0.498915065020    0.375413852320    0.624289896980
C    0.499978942760    0.375083749440    0.874858260540
C    0.499927916120    0.624946059420    0.125045574780
C    0.498915760340    0.624277436980    0.375426527760
C    0.502573862120    0.624590227560    0.624602570160
C    0.500103609600    0.624991137680    0.874966367840
C    0.499939745360    0.875115274080    0.124870110080
C    0.499979573600    0.874846571700    0.375095726160
C    0.500103476600    0.874954353240    0.625002478240
C    0.500075416240    0.875083630540    0.875095561940
C    0.749957724140    0.125000687560    0.125009888840
C    0.749966034520    0.124967804640    0.375001515420
C    0.749875828200    0.125133987120    0.624969158880
C    0.749946163060    0.125134288520    0.874950746140
C    0.749965784960    0.374991902820    0.124977982720
C    0.749870281580    0.374996720840    0.375008396400
C    0.749181093620    0.375723948500    0.624849540680
C    0.749903946260    0.375098819160    0.874926796780
C    0.749875823600    0.624958682320    0.125145074920
C    0.749181525060    0.624837168280    0.375736466940
C    0.750461220480    0.625360270060    0.625371972700
C    0.750174205220    0.625133600120    0.875236102340
C    0.749946131580    0.874940657140    0.125144508040
C    0.749903738060    0.874916490620    0.375108894240
C    0.750173878500    0.875225897860    0.625143069200
C    0.750083436000    0.875113303380    0.875122837540
C    0.124967704100   -0.000022442800    0.124987650300
C    0.124935587180   -0.000035937380    0.374982393800
C    0.125028742940   -0.000109826060    0.624993411880
C    0.125020196560   -0.000050144920    0.874970199400
C    0.124963153860    0.249992505100    0.125010078300
C    0.124947987940    0.250014975300    0.375006552380
C    0.124880035500    0.249900113020    0.625002839320
C    0.124950171660    0.249971585060    0.874977113340
C    0.124786371880    0.500013077820    0.124809168160
C    0.125049866200    0.499974909980    0.374996789440
C    0.125162467900    0.499903466720    0.624886006220
C    0.124930804400    0.499931575600    0.875045300840
C    0.124969480680    0.749972827020    0.124970128320
C    0.124942553160    0.749997875480    0.374955793780
C    0.125204547920    0.749818276560    0.624900786160
C    0.125155872560    0.749918363260    0.874891026380
C    0.374956915360   -0.000022614540    0.124952973900
C    0.374983747820   -0.000078666460    0.374998598020
C    0.375020458420   -0.000087599660    0.624976814560
C    0.374998538980   -0.000092386200    0.874976081000
C    0.374946396980    0.249991661580    0.124954603740
C    0.375072674440    0.250128964060    0.375165691920
C    0.374880809380    0.249789211860    0.625047769000
C    0.374942423880    0.249882990760    0.875064417080
C    0.374957810520    0.499983310900    0.124977507840
C    0.375448596880    0.500652216580    0.375215360960
C    0.376085704680    0.498838938700    0.623853753300
C    0.375126580600    0.499946813520    0.874815336140
C    0.374951137540    0.750050020080    0.124867388560
C    0.374963423720    0.750042981260    0.374848618680
C    0.375775615340    0.749182397140    0.624717702640
C    0.375114226240    0.749868221100    0.874855610940
C    0.624983249640   -0.000050523460    0.125053981500
C    0.624959725320   -0.000030891220    0.375038551380
C    0.625003935160    0.000063104320    0.625019431640
C    0.625021756860    0.000081509700    0.875044738420
C    0.624950921120    0.249944432140    0.124926452620
C    0.624864285040    0.249925227260    0.374939556220
C    0.624582783600    0.250384001100    0.624708451880
C    0.624946147680    0.250229444240    0.874820192000
C    0.624895557300    0.499966012480    0.125083127700
C    0.623781474180    0.499402518420    0.375775508240
C    0.624608324960    0.502576000720    0.624743624440
C    0.625016116160    0.500083689560    0.874998787680
C    0.624934669640    0.749916908880    0.125110449240
C    0.624768205680    0.749303720300    0.375701226980
C    0.625351261700    0.750490506280    0.625350913580
C    0.625138705440    0.750164393620    0.875224539260
C    0.874962338400   -0.000015429840    0.125039929680
C    0.874948035280   -0.000026150200    0.375025703980
C    0.875023398220    0.000094500740    0.625031364740
C    0.875016525900    0.000074426080    0.875026116460
C    0.874940336540    0.250004396220    0.124999315540
C    0.874946430480    0.249987140160    0.375001300560
C    0.874730886120    0.250268516800    0.624976218520
C    0.874909440920    0.250071971180    0.874942475160
C    0.874992321360    0.499976313440    0.124994394800
C    0.874774783980    0.500004318920    0.375149325160
C    0.874956784360    0.500094775520    0.625024842400
C    0.875103209940    0.500074181680    0.875113953180
C    0.874916720380    0.749958866220    0.125145835640
C    0.874875344100    0.749907497220    0.375113673720
C    0.875233285060    0.750161221500    0.625137213000
C    0.875127477380    0.750070550880    0.875116062420
C    0.124967175180    0.124976819460   -0.000011549360
C    0.124963382060    0.124998819540    0.250003085420
C    0.124785766600    0.124796076120    0.500024981380
C    0.124968398760    0.124956930160    0.749984413900
C    0.124934934460    0.374971389800   -0.000023829580
C    0.124947951220    0.374995002740    0.250026818300
C    0.125049963840    0.374984336080    0.499987387940
C    0.124941512520    0.374942851700    0.750010999000
C    0.125029262420    0.624982244160   -0.000096130460
C    0.124881073620    0.624990192200    0.249913611620
C    0.125162352300    0.624872956700    0.499916417120
C    0.125204533360    0.624888117600    0.749831750960
C    0.125020650280    0.874959362280   -0.000038269160
C    0.124951366540    0.874965090540    0.249983627340
C    0.124931531440    0.875032038360    0.499943637480
C    0.125155767520    0.874877785740    0.749929999140
C    0.374956344280    0.124939807460   -0.000009659340
C    0.374946481140    0.124943062420    0.250003052580
C    0.374956930960    0.124964506520    0.499996253500
C    0.374949881900    0.124851711680    0.750064392480
C    0.374983546620    0.374987046940   -0.000066806780
C    0.375072877560    0.375151956480    0.250142594540
C    0.375448087600    0.375201985880    0.500665616420
C    0.374962590000    0.374834856120    0.750056270220
C    0.375021197340    0.624964675520   -0.000073613740
C    0.374881892820    0.625033725000    0.249803381180
C    0.376086067040    0.623840905780    0.498852055180
C    0.375775657540    0.624704474520    0.749195756460
C    0.374999094940    0.874962914560   -0.000077655000
C    0.374943529760    0.875050301720    0.249897469280
C    0.375126733160    0.874802683100    0.499959346080
C    0.375114074240    0.874841295140    0.749881071100
C    0.624983141720    0.125043870340   -0.000040384020
C    0.624951071200    0.124916308300    0.249954373980
C    0.624895163180    0.125071953180    0.499977005560
C    0.624933951240    0.125098304720    0.749928605240
C    0.624959605000    0.375028596220   -0.000020696660
C    0.624864427920    0.374927834100    0.249937056780
C    0.623780568540    0.375762763040    0.499415488900
C    0.624767628400    0.375689345460    0.749315362180
C    0.625004323280    0.625009292000    0.000073938560
C    0.624583255320    0.624695012840    0.250397551340
C    0.624608817040    0.624731784560    0.502587876080
C    0.625351457980    0.625339249700    0.750502638200
C    0.625021877620    0.875034088300    0.000092502660
C    0.624946450200    0.874809500040    0.250240477640
C    0.625016074000    0.874988099600    0.500094203240
C    0.625138593400    0.875213937620    0.750174487340
C    0.874962239240    0.125030701520   -0.000006044880
C    0.874940503420    0.124989893260    0.250013452340
C    0.874992812000    0.124983590960    0.499985962400
C    0.874916947020    0.125134980200    0.749968941460
C    0.874947818080    0.375016681660   -0.000016167640
C    0.874946299480    0.374991188520    0.249997609120
C    0.874774968860    0.375137243000    0.500015960680
C    0.874876011220    0.375102612840    0.749918517660
C    0.875023546980    0.625022175820    0.000104865100
C    0.874730041440    0.624964859160    0.250280688240
C    0.874956581280    0.625013714560    0.500106050960
C    0.875233460100    0.625127297520    0.750171473620
C    0.875016593380    0.875016770340    0.000084101360
C    0.874909319920    0.874932177720    0.250081914900
C    0.875102985220    0.875103742820    0.500083545840
C    0.875127346460    0.875106283020    0.750079803360
C    0.187455448940    0.062489713420    0.187489602300
C    0.187429096380    0.062401325740    0.437487289200
C    0.187480084640    0.062376695960    0.687489543220
C    0.187487383780    0.062455603120    0.937477602800
C    0.187470560600    0.312493077060    0.187509277360
C    0.187491659740    0.312437759280    0.437488917420
C    0.187425370180    0.312441354140    0.687474701360
C    0.187438616720    0.312460443920    0.937502186680
C    0.187161765880    0.562433084260    0.187158910400
C    0.187668805620    0.562381836320    0.437448424060
C    0.187760902480    0.562347027640    0.687327449440
C    0.187587222160    0.562447538820    0.937362035140
C    0.187472481940    0.812464162960    0.187470243580
C    0.187334224080    0.812638007820    0.437497656780
C    0.187737853900    0.812281021180    0.687375048440
C    0.187561887960    0.812433526360    0.937409149600
C    0.437451981440    0.062431185700    0.187467805780
C    0.437452171700    0.062453260800    0.437491592180
C    0.437488838960    0.062456621920    0.687491127580
C    0.437498913760    0.062395235940    0.937543041620
C    0.437395955540    0.312453621120    0.187451238860
C    0.437472573720    0.312749291340    0.437665860560
C    0.437679751480    0.311737077540    0.688214588520
C    0.437477971280    0.312495692140    0.937431534380
C    0.437431488180    0.562446154480    0.187511642540
C    0.438605163320    0.561760193680    0.686309283500
C    0.437535037380    0.562482453720    0.937429532660
C    0.437511319580    0.812752808180    0.187217185280
C    0.437540957460    0.812324231240    0.437495922940
C    0.437726149880    0.812307827180    0.687422402960
C    0.437550277120    0.812456427940    0.937452182020
C    0.687464355020    0.062450487120    0.187520717840
C    0.687443103740    0.062519165520    0.437528618560
C    0.687484954400    0.062593247520    0.687516357000
C    0.687485346620    0.062583084460    0.937500307680
C    0.687421936320    0.312494307220    0.187447478180
C    0.687782947120    0.312098716140    0.437658058720
C    0.687109368040    0.312902393520    0.687219491120
C    0.687451272340    0.312572801280    0.937440773420
C    0.687342434400    0.562472578160    0.187647676840
C    0.686267984020    0.561952039200    0.438607366800
C    0.688275852200    0.562871100860    0.688336187920
C    0.687536792600    0.562555431120    0.937578529420
C    0.687400107560    0.812369626620    0.187694633580
C    0.687459363840    0.812388957740    0.437698528400
C    0.687748525960    0.812845996580    0.687749963840
C    0.687581684140    0.812603456060    0.937669324000
C    0.937453091040    0.062488524200    0.187519990020
C    0.937466933140    0.062472459460    0.437524318720
C    0.937468718400    0.062578723020    0.687501129980
C    0.937489360740    0.062533176880    0.937508704980
C    0.937445084480    0.312494074520    0.187500890640
C    0.937368696100    0.312548510860    0.437522749560
C    0.937389206900    0.312587578640    0.687466462580
C    0.937431838920    0.312529656080    0.937468146080
C    0.937350708460    0.562474125260    0.187624205240
C    0.937426883500    0.562500380440    0.437557328820
C    0.937575687100    0.562548956320    0.687532416000
C    0.937555674420    0.562518299020    0.937560198260
C    0.937427919800    0.812463177840    0.187570992280
C    0.937475926900    0.812464187940    0.437562385240
C    0.937683763000    0.812583124020    0.687576170860
C    0.937574184820    0.812527578980    0.937569051540
C    0.062472109660    0.062488053180    0.062498231500
C    0.062450202840    0.062488332040    0.312503180480
C    0.062386690040    0.062398060800    0.562481520060
C    0.062500651600    0.062490916000    0.812487650680
C    0.062449728680    0.312493072440    0.062499473640
C    0.062416185100    0.312481463980    0.312492496300
C    0.062459776480    0.312498807420    0.562475913020
C    0.062427163720    0.312496266400    0.812479368160
C    0.062387222080    0.562470554860    0.062410926720
C    0.062459782000    0.562464479860    0.312510677620
C    0.062597966680    0.562455557480    0.562467696320
C    0.062588115620    0.562477169460    0.812453305180
C    0.062501395480    0.812477178280    0.062502526920
C    0.062428152480    0.812467548400    0.312507883720
C    0.062588289940    0.812441100700    0.562488473500
C    0.062649127180    0.812458142700    0.812469633500
C    0.312467233760    0.062472055720    0.062484624640
C    0.312437994020    0.062423037180    0.312473651020
C    0.312475774740    0.062408270560    0.562481980500
C    0.312488063360    0.062376670480    0.812494467840
C    0.312437775980    0.312462117460    0.062434814100
C    0.312555166500    0.312586581180    0.312600304820
C    0.311792265640    0.311669419680    0.562236806600
C    0.312467524500    0.312420317780    0.812573885500
C    0.312476667100    0.562469444380    0.062422084680
C    0.311792636440    0.562222786280    0.311682980840
C    0.313431680140    0.561911145560    0.561924404160
C    0.312845837220    0.562316678900    0.812104650080
C    0.312489418880    0.812480626680    0.062392516520
C    0.312468792620    0.812559381460    0.312435157780
C    0.312845991380    0.812090702440    0.562329990660
C    0.312636725220    0.812326742260    0.812340659580
C    0.562464750180    0.062436186560    0.062446708080
C    0.562442835300    0.062460041360    0.312513043500
C    0.562466789600    0.062525419200    0.562507997320
C    0.562492775820    0.062519951540    0.812517323900
C    0.562442729540    0.312502674780    0.062470526520
C    0.562162896600    0.311830341720    0.311842770600
C    0.561965235800    0.312974630500    0.562283506680
C    0.562363722900    0.312747421460    0.812216785080
C    0.562467484280    0.562496949400    0.062536870400
C    0.561965858000    0.562269842440    0.312988161260
C    0.562604943220    0.562566764420    0.812524134580
C    0.562493528740    0.812505424220    0.062532638740
C    0.562364490340    0.812205212360    0.312759233780
C    0.562605141860    0.812512552980    0.562578273900
C    0.562638062020    0.812740676960    0.812751532240
C    0.812471897480    0.062518775800    0.062527985840
C    0.812450452480    0.062465777560    0.312527149240
C    0.812462889340    0.062571894340    0.562519913700
C    0.812484203980    0.062629581300    0.812505123900
C    0.812450227760    0.312518129240    0.062475432200
C    0.812445143340    0.312510595220    0.312521043980
C    0.812072293120    0.312856905620    0.562424937540
C    0.812370941020    0.312618403900    0.812407152740
C    0.812462859980    0.562510468020    0.062582265460
C    0.812071934640    0.562412692100    0.312869667980
C    0.812474409100    0.562610718820    0.562622309140
C    0.812766520760    0.562631108500    0.812777699160
C    0.812484261260    0.812495520300    0.062639657100
C    0.812370423380    0.812396316460    0.312629077140
C    0.812766281840    0.812767425600    0.562640814220
C    0.812661146540    0.812647213500    0.812656682220
C    0.062456578540    0.187492438740    0.187502742340
C    0.062402177940    0.187469483500    0.437495925960
C    0.062408314320    0.187488639120    0.687490707340
C    0.062459597560    0.187496563340    0.937484814120
C    0.062402088460    0.437485076160    0.187481020580
C    0.062495271680    0.437480450700    0.437492128460
C    0.062540586640    0.437492080280    0.687451656900
C    0.062415152700    0.437504129000    0.937515837020
C    0.062409199160    0.687479358180    0.187501148720
C    0.062540691560    0.687439777660    0.437503857320
C    0.062656446480    0.687450131600    0.687462248320
C    0.062589257060    0.687475498020    0.937455999560
C    0.062460450120    0.937474019760    0.187507202860
C    0.062415883140    0.937503692300    0.437515007280
C    0.062589047020    0.937443396800    0.687486085500
C    0.062531000840    0.937483325180    0.937493864060
C    0.312453615540    0.187495388760    0.187507006160
C    0.312384027640    0.187407904860    0.437492736100
C    0.312451199380    0.187317558140    0.687512529920
C    0.312452178280    0.187429812440    0.937519092920
C    0.312384644920    0.437479325820    0.187420848300
C    0.313091336940    0.437640905400    0.437654351560
C    0.312108822620    0.437566658840    0.687960939560
C    0.312511940820    0.437473838880    0.937401253340
C    0.312452635660    0.687497755640    0.187333365340
C    0.312109103020    0.687947620440    0.437580420760
C    0.313004146000    0.687067462200    0.687081306120
C    0.312581222800    0.687432696660    0.937367067740
C    0.312453560640    0.937505269680    0.187444065520
C    0.312512380540    0.937388700140    0.437485969520
C    0.312580927720    0.937352202820    0.687445038020
C    0.312516694520    0.937418416200    0.937431935160
C    0.562401603860    0.187249823520    0.187260488920
C    0.562353795520    0.187546274500    0.437517418540
C    0.562384350600    0.187567427160    0.687483122920
C    0.562456126460    0.187563208640    0.937427989180
C    0.562354320200    0.437505425180    0.187558046060
C    0.561832806240    0.438423950240    0.686433109460
C    0.562493002880    0.437525133340    0.937459198860
C    0.562385837880    0.687469701600    0.187581155080
C    0.561833685400    0.686421387020    0.438436120280
C    0.562895068380    0.688246970960    0.688259428880
C    0.562556541040    0.687531113080    0.937555861380
C    0.562456668980    0.937417010660    0.187574429360
C    0.562493192480    0.937448474780    0.437535747460
C    0.562556291040    0.937544442020    0.687541629040
C    0.562520979020    0.937553526820    0.937564751060
C    0.812434464840    0.187506558820    0.187515792300
C    0.812553709020    0.187404007160    0.437538011660
C    0.812326113100    0.187700913700    0.687439173680
C    0.812447727400    0.187565888240    0.937464635800
C    0.812553203340    0.437527651060    0.187415260800
C    0.812236324320    0.437570282660    0.437582453540
C    0.812328129060    0.437720986880    0.687487492400
C    0.812468936220    0.437554300680    0.937502484460
C    0.812325521220    0.687428307320    0.187712552700
C    0.812327629860    0.687475930680    0.437732794880
C    0.812850825700    0.687741588880    0.687751952800
C    0.812605592980    0.687578960140    0.937673852000
C    0.812447824480    0.937454902840    0.187575379120
C    0.812468895020    0.937492539500    0.437563506720
C    0.812605354420    0.937663893520    0.687588122500
C    0.812534213100    0.937570337220    0.937579714620
C    0.187454896860    0.187478224580    0.062501598060
C    0.187470438160    0.187497380760    0.312504537540
C    0.187161240880    0.187144849080    0.562446583340