&CONTROL
calculation = 'scf'
restart_mode = 'from_scratch'
prefix = 'pwscf'
pseudo_dir = './'
outdir = './'
wf_collect = .TRUE.
tprnfor = .TRUE.
verbosity = 'high'
forc_conv_thr = 0.000039
/
&SYSTEM
ibrav = 0
nat = 511
ntyp = 2
ecutwfc = 80
tot_charge = -1
nspin = 2
tot_magnetization = 2
occupations = 'from_input'
nbnd = 1032
/
&ELECTRONS
electron_maxstep = 100
conv_thr = 1.0d-10
mixing_mode = 'plain'
mixing_beta = 0.7
diagonalization = 'david'
diago_full_acc = .TRUE.
startingpot = 'atomic'
startingwfc = 'atomic+random'
/
&IONS
ion_dynamics='bfgs'
ion_positions='default'
/
ATOMIC_SPECIES
C  12.011   C_ONCV_PBE-1.2.upf
N  14.0067  N_ONCV_PBE-1.2.upf
CELL_PARAMETERS angstrom
14.272  0.0000  0.0000
0.0000  14.272  0.0000
0.0000  0.0000  14.272
K_POINTS gamma
OCCUPATIONS
1 1 1 1 1 1 1 1 1 1
1 1 1 1 1 1 1 1 1 1
1 1 1 1 1 1 1 1 1 1
1 1 1 1 1 1 1 1 1 1
1 1 1 1 1 1 1 1 1 1
1 1 1 1 1 1 1 1 1 1
1 1 1 1 1 1 1 1 1 1
1 1 1 1 1 1 1 1 1 1
1 1 1 1 1 1 1 1 1 1
1 1 1 1 1 1 1 1 1 1
1 1 1 1 1 1 1 1 1 1
1 1 1 1 1 1 1 1 1 1
1 1 1 1 1 1 1 1 1 1
1 1 1 1 1 1 1 1 1 1
1 1 1 1 1 1 1 1 1 1
1 1 1 1 1 1 1 1 1 1
1 1 1 1 1 1 1 1 1 1
1 1 1 1 1 1 1 1 1 1
1 1 1 1 1 1 1 1 1 1
1 1 1 1 1 1 1 1 1 1
1 1 1 1 1 1 1 1 1 1
1 1 1 1 1 1 1 1 1 1
1 1 1 1 1 1 1 1 1 1
1 1 1 1 1 1 1 1 1 1
1 1 1 1 1 1 1 1 1 1
1 1 1 1 1 1 1 1 1 1
1 1 1 1 1 1 1 1 1 1
1 1 1 1 1 1 1 1 1 1
1 1 1 1 1 1 1 1 1 1
1 1 1 1 1 1 1 1 1 1
1 1 1 1 1 1 1 1 1 1
1 1 1 1 1 1 1 1 1 1
1 1 1 1 1 1 1 1 1 1
1 1 1 1 1 1 1 1 1 1
1 1 1 1 1 1 1 1 1 1
1 1 1 1 1 1 1 1 1 1
1 1 1 1 1 1 1 1 1 1
1 1 1 1 1 1 1 1 1 1
1 1 1 1 1 1 1 1 1 1
1 1 1 1 1 1 1 1 1 1
1 1 1 1 1 1 1 1 1 1
1 1 1 1 1 1 1 1 1 1
1 1 1 1 1 1 1 1 1 1
1 1 1 1 1 1 1 1 1 1
1 1 1 1 1 1 1 1 1 1
1 1 1 1 1 1 1 1 1 1
1 1 1 1 1 1 1 1 1 1
1 1 1 1 1 1 1 1 1 1
1 1 1 1 1 1 1 1 1 1
1 1 1 1 1 1 1 1 1 1
1 1 1 1 1 1 1 1 1 1
1 1 1 1 1 1 1 1 1 1
1 1 1 1 1 1 1 1 1 1
1 1 1 1 1 1 1 1 1 1
1 1 1 1 1 1 1 1 1 1
1 1 1 1 1 1 1 1 1 1
1 1 1 1 1 1 1 1 1 1
1 1 1 1 1 1 1 1 1 1
1 1 1 1 1 1 1 1 1 1
1 1 1 1 1 1 1 1 1 1
1 1 1 1 1 1 1 1 1 1
1 1 1 1 1 1 1 1 1 1
1 1 1 1 1 1 1 1 1 1
1 1 1 1 1 1 1 1 1 1
1 1 1 1 1 1 1 1 1 1
1 1 1 1 1 1 1 1 1 1
1 1 1 1 1 1 1 1 1 1
1 1 1 1 1 1 1 1 1 1
1 1 1 1 1 1 1 1 1 1
1 1 1 1 1 1 1 1 1 1
1 1 1 1 1 1 1 1 1 1
1 1 1 1 1 1 1 1 1 1
1 1 1 1 1 1 1 1 1 1
1 1 1 1 1 1 1 1 1 1
1 1 1 1 1 1 1 1 1 1
1 1 1 1 1 1 1 1 1 1
1 1 1 1 1 1 1 1 1 1
1 1 1 1 1 1 1 1 1 1
1 1 1 1 1 1 1 1 1 1
1 1 1 1 1 1 1 1 1 1
1 1 1 1 1 1 1 1 1 1
1 1 1 1 1 1 1 1 1 1
1 1 1 1 1 1 1 1 1 1
1 1 1 1 1 1 1 1 1 1
1 1 1 1 1 1 1 1 1 1
1 1 1 1 1 1 1 1 1 1
1 1 1 1 1 1 1 1 1 1
1 1 1 1 1 1 1 1 1 1
1 1 1 1 1 1 1 1 1 1
1 1 1 1 1 1 1 1 1 1
1 1 1 1 1 1 1 1 1 1
1 1 1 1 1 1 1 1 1 1
1 1 1 1 1 1 1 1 1 1
1 1 1 1 1 1 1 1 1 1
1 1 1 1 1 1 1 1 1 1
1 1 1 1 1 1 1 1 1 1
1 1 1 1 1 1 1 1 1 1
1 1 1 1 1 1 1 1 1 1
1 1 1 1 1 1 1 1 1 1
1 1 1 1 1 1 1 1 1 1
1 1 1 1 1 1 1 1 1 1
1 1 1 1 1 1 1 1 1 1
1 1 1 1 0 0 0 0 0 0
0 0
1 1 1 1 1 1 1 1 1 1
1 1 1 1 1 1 1 1 1 1
1 1 1 1 1 1 1 1 1 1
1 1 1 1 1 1 1 1 1 1
1 1 1 1 1 1 1 1 1 1
1 1 1 1 1 1 1 1 1 1
1 1 1 1 1 1 1 1 1 1
1 1 1 1 1 1 1 1 1 1
1 1 1 1 1 1 1 1 1 1
1 1 1 1 1 1 1 1 1 1
1 1 1 1 1 1 1 1 1 1
1 1 1 1 1 1 1 1 1 1
1 1 1 1 1 1 1 1 1 1
1 1 1 1 1 1 1 1 1 1
1 1 1 1 1 1 1 1 1 1
1 1 1 1 1 1 1 1 1 1
1 1 1 1 1 1 1 1 1 1
1 1 1 1 1 1 1 1 1 1
1 1 1 1 1 1 1 1 1 1
1 1 1 1 1 1 1 1 1 1
1 1 1 1 1 1 1 1 1 1
1 1 1 1 1 1 1 1 1 1
1 1 1 1 1 1 1 1 1 1
1 1 1 1 1 1 1 1 1 1
1 1 1 1 1 1 1 1 1 1
1 1 1 1 1 1 1 1 1 1
1 1 1 1 1 1 1 1 1 1
1 1 1 1 1 1 1 1 1 1
1 1 1 1 1 1 1 1 1 1
1 1 1 1 1 1 1 1 1 1
1 1 1 1 1 1 1 1 1 1
1 1 1 1 1 1 1 1 1 1
1 1 1 1 1 1 1 1 1 1
1 1 1 1 1 1 1 1 1 1
1 1 1 1 1 1 1 1 1 1
1 1 1 1 1 1 1 1 1 1
1 1 1 1 1 1 1 1 1 1
1 1 1 1 1 1 1 1 1 1
1 1 1 1 1 1 1 1 1 1
1 1 1 1 1 1 1 1 1 1
1 1 1 1 1 1 1 1 1 1
1 1 1 1 1 1 1 1 1 1
1 1 1 1 1 1 1 1 1 1
1 1 1 1 1 1 1 1 1 1
1 1 1 1 1 1 1 1 1 1
1 1 1 1 1 1 1 1 1 1
1 1 1 1 1 1 1 1 1 1
1 1 1 1 1 1 1 1 1 1
1 1 1 1 1 1 1 1 1 1
1 1 1 1 1 1 1 1 1 1
1 1 1 1 1 1 1 1 1 1
1 1 1 1 1 1 1 1 1 1
1 1 1 1 1 1 1 1 1 1
1 1 1 1 1 1 1 1 1 1
1 1 1 1 1 1 1 1 1 1
1 1 1 1 1 1 1 1 1 1
1 1 1 1 1 1 1 1 1 1
1 1 1 1 1 1 1 1 1 1
1 1 1 1 1 1 1 1 1 1
1 1 1 1 1 1 1 1 1 1
1 1 1 1 1 1 1 1 1 1
1 1 1 1 1 1 1 1 1 1
1 1 1 1 1 1 1 1 1 1
1 1 1 1 1 1 1 1 1 1
1 1 1 1 1 1 1 1 1 1
1 1 1 1 1 1 1 1 1 1
1 1 1 1 1 1 1 1 1 1
1 1 1 1 1 1 1 1 1 1
1 1 1 1 1 1 1 1 1 1
1 1 1 1 1 1 1 1 1 1
1 1 1 1 1 1 1 1 1 1
1 1 1 1 1 1 1 1 1 1
1 1 1 1 1 1 1 1 1 1
1 1 1 1 1 1 1 1 1 1
1 1 1 1 1 1 1 1 1 1
1 1 1 1 1 1 1 1 1 1
1 1 1 1 1 1 1 1 1 1
1 1 1 1 1 1 1 1 1 1
1 1 1 1 1 1 1 1 1 1
1 1 1 1 1 1 1 1 1 1
1 1 1 1 1 1 1 1 1 1
1 1 1 1 1 1 1 1 1 1
1 1 1 1 1 1 1 1 1 1
1 1 1 1 1 1 1 1 1 1
1 1 1 1 1 1 1 1 1 1
1 1 1 1 1 1 1 1 1 1
1 1 1 1 1 1 1 1 1 1
1 1 1 1 1 1 1 1 1 1
1 1 1 1 1 1 1 1 1 1
1 1 1 1 1 1 1 1 1 1
1 1 1 1 1 1 1 1 1 1
1 1 1 1 1 1 1 1 1 1
1 1 1 1 1 1 1 1 1 1
1 1 1 1 1 1 1 1 1 1
1 1 1 1 1 1 1 1 1 1
1 1 1 1 1 1 1 1 1 1
1 1 1 1 1 1 1 1 1 1
1 1 1 1 1 1 1 1 1 1
1 1 1 1 1 1 1 1 1 1
1 1 1 1 1 1 1 1 1 1
1 1 1 1 1 1 1 1 1 1
1 1 1 1 1 1 1 1 1 1
1 0 1 0 0 0 0 0 0 0
0 0
ATOMIC_POSITIONS crystal
C    0.000018365780    0.000016619540    0.000011789380
C   -0.000054248120   -0.000067572460    0.250016413260
C    0.000024169320    0.000006854860    0.500007054260
C    0.000094722380    0.000103813240    0.749998040720
C   -0.000054035160    0.250021185140   -0.000072718040
C   -0.000130813940    0.249945315960    0.249940315000
C   -0.000157126900    0.250043296400    0.499948393700
C   -0.000069609020    0.250091827460    0.749921395060
C    0.000024189780    0.500011933540    0.000001095000
C   -0.000157031840    0.499953632060    0.250037705740
C   -0.000055262700    0.500007135480    0.500001555440
C    0.000096806840    0.500062032300    0.749987334500
C    0.000094617100    0.750002891320    0.000098251220
C   -0.000069786860    0.749926854580    0.250086214780
C    0.000096800620    0.749992885380    0.500056747140
C    0.000284988400    0.750101000420    0.750095628180
C    0.250029362640   -0.000055174520   -0.000061323680
C    0.249969540260   -0.000148118940    0.249958376700
C    0.250058671480   -0.000153201460    0.499958112240
C    0.250093649940   -0.000050580920    0.749926288280
C    0.249969998680    0.249964578120   -0.000154551600
C    0.249912978160    0.249896580540    0.249890410960
C    0.249477418640    0.249495470620    0.499865311000
C    0.250023860860    0.250044054680    0.749816245740
C    0.250058578880    0.499963877940   -0.000159661640
C    0.249477360280    0.499872156120    0.249488821020
C    0.250203820380    0.499738866540    0.499731753960
C    0.250062335840    0.499915475000    0.749853579800
C    0.250093243800    0.749932562540   -0.000058304040
C    0.250023081180    0.749823620980    0.250036300600
C    0.250062382840    0.749860501260    0.499908620600
C    0.250419034800    0.749782240160    0.749775113760
C    0.500018177520    0.000007959440    0.000001858960
C    0.499966869300   -0.000175186700    0.250052058720
C    0.500009647660   -0.000042205060    0.500001392980
C    0.500056534400    0.000123629360    0.749973443360
C    0.499967021160    0.250057611600   -0.000180813420
C    0.499942231200    0.249435074940    0.249429111400
C    0.499742494840    0.250338722700    0.499688766740
C    0.499889003420    0.250180053220    0.749752209760
C    0.500009493440    0.500006813520   -0.000047910440
C    0.499742156520    0.499695676420    0.250331879680
C    0.500198203060    0.500235992860    0.749475663040
C    0.500056230100    0.749979350680    0.000116982540
C    0.499888466420    0.749758346500    0.250173776320
C    0.500197945800    0.749481855140    0.500229701340
C    0.500479128740    0.750630142180    0.750624142400
C    0.750000914180    0.000092148720    0.000087375720
C    0.749933586580   -0.000090689920    0.250079926360
C    0.749984487060    0.000100014500    0.500047189660
C    0.750085391080    0.000303360280    0.750079579960
C    0.749933653280    0.250084546420   -0.000095507460
C    0.749853906800    0.250006812060    0.250001892380
C    0.749912681760    0.250046114220    0.499829251660
C    0.749752340500    0.250448817160    0.749726191040
C    0.749984458940    0.500051825560    0.000094997280
C    0.749912828200    0.499835224980    0.250039826860
C    0.749519948140    0.500193988840    0.500187638180
C    0.750613711700    0.500485964880    0.750590746140
C    0.750085305480    0.750084348000    0.000298313360
C    0.749752752020    0.749732097780    0.250442773860
C    0.750613904520    0.750596343760    0.500480434080
C    0.750397141120    0.750400996300    0.750396017760
C   -0.000057089200    0.124974061560    0.124969288940
C   -0.000100294780    0.124947317500    0.374962973200
C   -0.000070763000    0.125103974580    0.624966559340
C   -0.000008905760    0.125074233320    0.874948803620
C   -0.000100129800    0.374967792380    0.124942016160
C   -0.000181118680    0.374987450280    0.374982023820
C   -0.000065259420    0.375064780320    0.624941450820
C   -0.000011043240    0.375047743500    0.874932165500
C   -0.000070880580    0.624971719620    0.125098073200
C   -0.000065203560    0.624946927680    0.375059205940
C    0.000144690060    0.625044505960    0.625038938060
C    0.000205987120    0.625057754860    0.875088167380
C   -0.000009116300    0.874953817120    0.125069065560
C   -0.000011291540    0.874937715320    0.375042633980
C    0.000206053160    0.875093847520    0.625052783120
C    0.000156084600    0.875062315240    0.875057269220
C    0.249962191240    0.124916260600    0.124910385320
C    0.249925017740    0.124823613580    0.374899799540
C    0.249951878440    0.124919520360    0.624895344580
C    0.250020272040    0.125003267500    0.874882268360
C    0.249924906060    0.374905676940    0.124817624960
C    0.249884302420    0.374894116740    0.374887410820
C    0.249952722080    0.374900505520    0.624725899280
C    0.250032824940    0.375009979400    0.874832147440
C    0.249951213860    0.624902237200    0.124911763200
C    0.249952310500    0.624733404340    0.374892918220
C    0.250463670460    0.624617210500    0.624610331780
C    0.250367432140    0.624952319940    0.874693701740
C    0.250019619160    0.874888826240    0.124996110260
C    0.250032223800    0.874839288860    0.375003078400
C    0.250367379120    0.874701032760    0.624945960420
C    0.250144857960    0.874928131920    0.874921422400
C    0.499976438720    0.124775589360    0.124770166700
C    0.499907514580    0.124942913100    0.374920282180
C    0.499933083840    0.125161875680    0.624830274420
C    0.499980415180    0.125097641260    0.874899819160
C    0.499907408400    0.374925895640    0.124937212920
C    0.500279831460    0.374955658960    0.374948759820
C    0.499372323040    0.376344964540    0.623125274060
C    0.500010993920    0.375224086080    0.874672397280
C    0.499932385340    0.624836819640    0.125155019160
C    0.499371952880    0.623131516060    0.376338614820
C    0.503401072340    0.625128683220    0.625122555420
C    0.500184948900    0.625080908960    0.875003583680
C    0.499980060320    0.874906143960    0.125091028760
C    0.500010689000    0.874678265700    0.375218102220
C    0.500185010900    0.875009599980    0.625075253680
C    0.500152842580    0.875235887380    0.875229924680
C    0.749934703580    0.125003385520    0.124998789380
C    0.749924817040    0.124989743880    0.374979333840
C    0.749856552000    0.125268264540    0.624910631760
C    0.749948891020    0.125248404140    0.874915215280
C    0.749924926820    0.374984129640    0.124984644340
C    0.749720060660    0.375041756180    0.375035919900
C    0.749144132840    0.375940010300    0.624765248360
C    0.749906577320    0.375195441120    0.874880665960
C    0.749856554300    0.624915880540    0.125262710140
C    0.749143920120    0.624771427060    0.375933755580
C    0.750776674860    0.625599592720    0.625593765400
C    0.750315729140    0.625258336340    0.875405763080
C    0.749948918760    0.874920262780    0.125243297380
C    0.749906685920    0.874885825040    0.375190415580
C    0.750315891000    0.875410854820    0.625253619800
C    0.750156012300    0.875236113660    0.875231364580
C    0.124986615200   -0.000066272200    0.124976655600
C    0.124972640360   -0.000114031160    0.374970443900
C    0.125108743880   -0.000065027120    0.624972117160
C    0.125073180820   -0.000001427440    0.874955453200
C    0.124928785620    0.249945676600    0.124905335400
C    0.124814606080    0.249900275700    0.374894677160
C    0.124893729900    0.249948412540    0.624900633940
C    0.124994331720    0.250019796920    0.874884671280
C    0.124808291560    0.499957285140    0.124796902420
C    0.124913986300    0.499888945460    0.374921997280
C    0.125096589100    0.499944581540    0.624866840240
C    0.125060687600    0.499984094200    0.874941123080
C    0.125018969460    0.749927155140    0.125018651640
C    0.125002335120    0.749908901060    0.375002194660
C    0.125232946640    0.749885338320    0.624944834620
C    0.125237606120    0.749962790920    0.874945078160
C    0.374983181620   -0.000120704580    0.124963951500
C    0.375005161940   -0.000185350120    0.374997724840
C    0.375068126440   -0.000043355720    0.624940503220
C    0.375050540260    0.000003873000    0.874931665100
C    0.374924753360    0.249911931060    0.124811304180
C    0.374944172080    0.249957744220    0.374897646840
C    0.374878549660    0.250042857720    0.624682458100
C    0.375000978960    0.250056307420    0.874813475660
C    0.374941501740    0.499884748000    0.124950163980
C    0.374847499060    0.500003578660    0.374964090020
C    0.376009072860    0.499410333700    0.623343335400
C    0.375202705000    0.500027025540    0.874693863980
C    0.375004537780    0.749882824260    0.125039918920
C    0.375058416740    0.749633740820    0.375115796760
C    0.375914191880    0.749143494580    0.624831185380
C    0.375187761580    0.749924435400    0.874916254380
C    0.624977214780   -0.000094690420    0.125096138100
C    0.624949064340   -0.000071714440    0.375059070960
C    0.625031974720    0.000167108740    0.625024212980
C    0.625050403620    0.000220507200    0.875070744040
C    0.624926605040    0.249926248480    0.124870518340
C    0.624774207580    0.249974853020    0.374849158240
C    0.624575853600    0.250594609500    0.624513013460
C    0.624933495960    0.250390113380    0.874647691400
C    0.624862075200    0.499913316160    0.125136259200
C    0.623379471960    0.499128560340    0.376164144080
C    0.625119670520    0.503399947540    0.625052020780
C    0.625068440720    0.500194868420    0.874987373760
C    0.624927906380    0.749836019160    0.125280010980
C    0.624805936860    0.749082833000    0.375951368060
C    0.625604131400    0.750762024460    0.625604296460
C    0.625255815180    0.750320627440    0.875411546120
C    0.874959382200   -0.000018790980    0.125063338260
C    0.874945683460   -0.000029242000    0.375036959260
C    0.875081400640    0.000214022180    0.625045590680
C    0.875054028600    0.000162149260    0.875049249820
C    0.874903062680    0.250003389840    0.124969771780
C    0.874872456960    0.250004235720    0.374971536120
C    0.874692339840    0.250370577100    0.624918445540
C    0.874913105840    0.250145651360    0.874896594720
C    0.874967599320    0.499961732780    0.125028898400
C    0.874714119060    0.499998277340    0.375191314720
C    0.875008360420    0.500189329940    0.625064073100
C    0.875226088680    0.500153428360    0.875220726060
C    0.874932220660    0.749942539440    0.125242641080
C    0.874906377300    0.749904806340    0.375188028840
C    0.875407147720    0.750322216500    0.625256543400
C    0.875229028160    0.750162451860    0.875234753640
C    0.124986885660    0.124982062020   -0.000071726420
C    0.124928667020    0.124910958780    0.249940405940
C    0.124808604700    0.124803469440    0.499951366360
C    0.125019519420    0.125025270220    0.749921346700
C    0.124972972720    0.374975908400   -0.000120101560
C    0.124814615440    0.374900424980    0.249894361700
C    0.124913947980    0.374928229960    0.499882715480
C    0.125002879440    0.375008655200    0.749902325800
C    0.125108485640    0.624977686020   -0.000071895920
C    0.124893185340    0.624906957500    0.249941655740
C    0.125096630400    0.624873369500    0.499938119840
C    0.125232968920    0.624951155400    0.749878595120
C    0.125072958460    0.874960885260   -0.000007369820
C    0.124993725280    0.874890696180    0.250013783280
C    0.125060307580    0.874947772320    0.499978094760
C    0.125237648140    0.874951704480    0.749956975980
C    0.374983453660    0.124970537720   -0.000127189680
C    0.374924724780    0.124817076340    0.249906252060
C    0.374941955020    0.124956709640    0.499878288700
C    0.375005159600    0.125047793360    0.749875629060
C    0.375005253540    0.375003483880   -0.000191305460
C    0.374944054020    0.374904501060    0.249950907980
C    0.374847753700    0.374970789560    0.499996844240
C    0.375058847100    0.375122678040    0.749627076840
C    0.375067764480    0.624946557740   -0.000050395180
C    0.374878000440    0.624689486100    0.250035734060
C    0.376008885680    0.623349768160    0.499403776960
C    0.375914176780    0.624837772440    0.749136820920
C    0.375050266780    0.874938257320   -0.000003504600
C    0.375000439520    0.874820548340    0.250049068160
C    0.375202613720    0.874700211500    0.500020783260
C    0.375187831580    0.874923422780    0.749918017900
C    0.624977255240    0.125101192180   -0.000099764640
C    0.624926543500    0.124875605500    0.249921285060
C    0.624862276760    0.125141876460    0.499907824120
C    0.624928250580    0.125286104240    0.749830158980
C    0.624949106500    0.375064047040   -0.000076841720
C    0.624774128640    0.374855016300    0.249968918760
C    0.623379932280    0.376170521180    0.499122090100
C    0.624806218000    0.375957304320    0.749077009060
C    0.625031780660    0.625029276800    0.000161676620
C    0.624575625240    0.624519744980    0.250587798380
C    0.625119419980    0.625057900220    0.503394048860
C    0.625604028760    0.625610099900    0.750755984000
C    0.625050353740    0.875076061600    0.000215013720
C    0.624933362700    0.874653049380    0.250384590680
C    0.625068466300    0.874992723800    0.500189623580
C    0.625255865200    0.875416833440    0.750315597080
C    0.874959431780    0.125067932840   -0.000023472960
C    0.874902979240    0.124974481420    0.249998882780
C    0.874967361500    0.125034304820    0.499956926300
C    0.874932101340    0.125248061300    0.749937495820
C    0.874945792060    0.375041446420   -0.000034234780
C    0.874872516460    0.374976577140    0.249999007240
C    0.874714029620    0.375197342300    0.499992474460
C    0.874906049740    0.375193542780    0.749899291620
C    0.875081324760    0.625050179140    0.000208837000
C    0.874692757680    0.624924129720    0.250364497380
C    0.875008455960    0.625069626520    0.500183711720
C    0.875407061700    0.625261487640    0.750317097940
C    0.875054000860    0.875053909380    0.000157332620
C    0.874913167840    0.874901753940    0.250140700500
C    0.875226198040    0.875225838740    0.500148764280
C    0.875229090620    0.875239626840    0.750157837620
C    0.187465045580    0.062404883740    0.187447974900
C    0.187443117960    0.062338420480    0.437437545600
C    0.187553976680    0.062457646520    0.687433240540
C    0.187534562260    0.062487957340    0.937428291800
C    0.187392617900    0.312401441820    0.187373261020
C    0.187274796880    0.312300278760    0.437308314540
C    0.187455315160    0.312517356380    0.687333910820
C    0.187499486540    0.312499002140    0.937358591260
C    0.187187326960    0.562340725420    0.187188753200
C    0.187517783940    0.562296215840    0.437428240420
C    0.187715563660    0.562435175980    0.687320276080
C    0.187676170120    0.562467696240    0.937315864180
C    0.187526342980    0.812377820020    0.187527463660
C    0.187508324760    0.812437980240    0.437536152960
C    0.187807590100    0.812334276760    0.687413153180
C    0.187637963520    0.812454525820    0.937458018400
C    0.437455202480    0.062323477000    0.187423766260
C    0.437459953400    0.062410758900    0.437440232660
C    0.437535506120    0.062575084240    0.687401592160
C    0.437526104320    0.062511473880    0.937428938840
C    0.437354810480    0.312292346340    0.187294995320
C    0.437299733640    0.312596257980    0.437203061720
C    0.437634762460    0.312532962480    0.687291098940
C    0.437516714360    0.312586002280    0.937259253260
C    0.437436724860    0.562264056760    0.187596351980
C    0.438879271940    0.562032856960    0.686117345300
C    0.437596612860    0.562524528240    0.937401173120
C    0.437529330560    0.812380571060    0.187566850160
C    0.437632001220    0.812106717080    0.437654512480
C    0.437859645260    0.812395170860    0.687552711620
C    0.437614226440    0.812498893480    0.937539904840
C    0.687445851140    0.062420738940    0.187533667580
C    0.687425620580    0.062543807940    0.437515607320
C    0.687496933400    0.062740893540    0.687481215600
C    0.687498829940    0.062675586520    0.937495428360
C    0.687360303840    0.312490879840    0.187444261160
C    0.687506918140    0.312352149180    0.437645589340
C    0.687124433980    0.313107453840    0.687069370940
C    0.687440978080    0.312659861460    0.937357931540
C    0.687312780600    0.562372411220    0.187772167480
C    0.686137981540    0.561936934200    0.438878155200
C    0.688756436900    0.563048468420    0.688726278040
C    0.687591543200    0.562627513440    0.937640209240
C    0.687400634120    0.812289969540    0.187829201760
C    0.687534226680    0.812354610080    0.437873430500
C    0.687919270120    0.813078320660    0.687918551180
C    0.687652841380    0.812698367420    0.937825090900
C    0.937440541680    0.062471498300    0.187518280140
C    0.937466985580    0.062472868120    0.437513400340
C    0.937511208000    0.062677770240    0.687490923260
C    0.937515321180    0.062586131260    0.937505658060
C    0.937387133360    0.312482198840    0.187468361580
C    0.937290660400    0.312559589920    0.437494329720
C    0.937383699800    0.312652465280    0.687433381460
C    0.937444608240    0.312571420160    0.937426474160
C    0.937321515520    0.562454410520    0.187657683080
C    0.937402482700    0.562515570880    0.437585447640
C    0.937641613900    0.562630750840    0.687593730000
C    0.937652169540    0.562555646740    0.937649928620
C    0.937448618300    0.812439706080    0.187633412860
C    0.937528012900    0.812495023980    0.437608152880
C    0.937817854900    0.812708534940    0.687655583020
C    0.937647326140    0.812582474360    0.937649904780
C    0.062489009920    0.062481047160    0.062475959500
C    0.062440931880    0.062421891280    0.312478651460
C    0.062448677480    0.062443011600    0.562452928620
C    0.062552657200    0.062557540000    0.812461969660
C    0.062441174960    0.312483682980    0.062416314480
C    0.062306327500    0.312416912560    0.312411426400
C    0.062397218560    0.312504078540    0.562416757940
C    0.062477514040    0.312551773900    0.812409209620
C    0.062448403960    0.562458408220    0.062436569640
C    0.062397202300    0.562422474520    0.312498153940
C    0.062556322360    0.562483701560    0.562477653140
C    0.062649949640    0.562529514120    0.812471630860
C    0.062552279260    0.812467237360    0.062551728540
C    0.062477004660    0.812415151000    0.312545966740
C    0.062649853480    0.812477734600    0.562523874100
C    0.062744592460    0.812527656600    0.812521917200
C    0.312496608320    0.062430014440    0.062423729980
C    0.312438659540    0.062302920960    0.312420826540
C    0.312515612880    0.062423013520    0.562413721200
C    0.312555893420    0.062502780160    0.812401664280
C    0.312438777560    0.312426579820    0.062297019000
C    0.312374137500    0.312358407660    0.312351551840
C    0.311714671780    0.311776097760    0.561923156600
C    0.312561259500    0.312584840360    0.812276812600
C    0.312515163700    0.562419983260    0.062416061460
C    0.311714478880    0.561930163760    0.311769287180
C    0.312996775780    0.562094223320    0.562087615020
C    0.312988284240    0.562427701100    0.811983693560
C    0.312555206660    0.812408601360    0.062494837640
C    0.312560605940    0.812284096120    0.312577421860
C    0.312988207160    0.811990670380    0.562421073720
C    0.312712878240    0.812396776120    0.812389826460
C    0.562461325560    0.062423941220    0.062418681960
C    0.562433316300    0.062397120620    0.312496977000
C    0.562478126000    0.062592645600    0.562457501140
C    0.562521740940    0.062684057180    0.812439623000
C    0.562433360180    0.312502146360    0.062391845040
C    0.561960126600    0.311695635240    0.311689404300
C    0.562067181200    0.313225311100    0.561908030760
C    0.562404204600    0.313037481620    0.811927618560
C    0.562477772660    0.562463008600    0.062586878000
C    0.562066894100    0.561914874880    0.313218506720
C    0.562727474740    0.562746532640    0.812524356160
C    0.562521365980    0.812445562340    0.062677698580
C    0.562403832880    0.811933410920    0.313031576960
C    0.562727381420    0.812530148460    0.562740806400
C    0.562742242540    0.812999985320    0.812994571180
C    0.812469856760    0.062543604100    0.062539014080
C    0.812423677960    0.062458219120    0.312536360980
C    0.812466834280    0.062658084280    0.562508157000
C    0.812514627460    0.062754371400    0.812504170500
C    0.812423784320    0.312540846980    0.062453400800
C    0.812341185180    0.312539707640    0.312534501260
C    0.811999855540    0.312982736540    0.562373592780
C    0.812374672240    0.312722014900    0.812356576880
C    0.812466845960    0.562512870840    0.062652889720
C    0.812000043780    0.562379702000    0.312976356860
C    0.812549197900    0.562724559940    0.562718775280
C    0.812987055920    0.562745680300    0.812981483220
C    0.812514603320    0.812508966300    0.062749339500
C    0.812374934060    0.812361998020    0.312716691780
C    0.812987181380    0.812986615500    0.562740842440
C    0.812781347780    0.812788306800    0.812783585940
C    0.062421442180    0.187446561180    0.187441416880
C    0.062337961380    0.187422928900    0.437433234720
C    0.062441817840    0.187549693440    0.687432652480
C    0.062485954120    0.187529969480    0.937424690640
C    0.062338006120    0.437438640120    0.187417172360
C    0.062389705460    0.437445788400    0.437439966020
C    0.062533064380    0.437533844960    0.687421333500
C    0.062501502000    0.437523471200    0.937442550140
C    0.062441358920    0.687438354060    0.187543434140
C    0.062532998420    0.687427279120    0.437527975940
C    0.062709259560    0.687514313300    0.687508275940
C    0.062672488220    0.687503739240    0.937517579420
C    0.062485512840    0.937430107320    0.187524658720
C    0.062501127780    0.937448634500    0.437518042560
C    0.062672594740    0.937523882300    0.687498442500
C    0.062587210280    0.937518349460    0.937513071020
C    0.312421192080    0.187380196320    0.187374393620
C    0.312327152080    0.187316690820    0.437306399200
C    0.312512456260    0.187509234680    0.687314986040
C    0.312503152960    0.187503884180    0.937350133640
C    0.312326856940    0.437313098340    0.187310187600
C    0.312425223180    0.437215546800    0.437208828220
C    0.312347086940    0.437691298280    0.687417932420
C    0.312577895940    0.437518753560    0.937274389280
C    0.312511715620    0.687322397180    0.187501290580
C    0.312346939240    0.687424603980    0.437684432320
C    0.313056592600    0.687145371900    0.687138473940
C    0.312655665700    0.687450261420    0.937394779880
C    0.312502452780    0.937357067760    0.187496750140
C    0.312577662580    0.937280706380    0.437512712240
C    0.312655817740    0.937402233340    0.687444096740
C    0.312577917440    0.937451337600    0.937444567620
C    0.562356488120    0.187143313140    0.187137971440
C    0.562310246740    0.187579096000    0.437393746180
C    0.562416547500    0.187812323820    0.687242428840
C    0.562463424920    0.187688178380    0.937282888660
C    0.562309994900    0.437399726360    0.187573162220
C    0.561996550680    0.438969867980    0.686055423320
C    0.562519273160    0.437601527380    0.937386338520
C    0.562415806860    0.687249138000    0.187805426860
C    0.561996135100    0.686061292040    0.438963790460
C    0.563036511660    0.688770876020    0.688764665060
C    0.562626989980    0.687594370960    0.937651541760
C    0.562463165660    0.937288386920    0.187682568020
C    0.562519196360    0.937391735060    0.437596242820
C    0.562627120980    0.937657267940    0.687589130980
C    0.562554330740    0.937653259840    0.937647649220
C    0.812392642080    0.187509324040    0.187504722300
C    0.812480104140    0.187473454220    0.437515978520
C    0.812311726300    0.187826066200    0.687381089060
C    0.812447411800    0.187635960380    0.937430282800
C    0.812480355480    0.437521142320    0.187467822900
C    0.812150634540    0.437617311620    0.437611238180
C    0.812385001920    0.437862186260    0.687520153400
C    0.812492636340    0.437612189160    0.937514767120
C    0.812312026740    0.687386516240    0.187820243700
C    0.812385262020    0.687525929760    0.437856292760
C    0.813075900100    0.687922719160    0.687917546200
C    0.812697303460    0.687654182380    0.937822823900
C    0.812447366260    0.937435144780    0.187631229940
C    0.812492655440    0.937519742600    0.437607608640
C    0.812697425740    0.937827804640    0.687649613200
C    0.812579161800    0.937649252940    0.937644576240
C    0.187465330620    0.187453660760    0.062398939920
C    0.187392670120    0.187379201820    0.312395737080
C    0.187187596960    0.187195807860    0.562333978880