&CONTROL
calculation = 'scf'
restart_mode = 'from_scratch'
prefix = 'pwscf'
pseudo_dir = './'
outdir = './'
tprnfor = .TRUE.
verbosity = 'high'
forc_conv_thr = 0.000039
/
&SYSTEM
ibrav = 0
nat = 511
ntyp = 2
ecutwfc = 80
tot_charge = -1
nspin = 2
tot_magnetization = 2
nbnd = 1032
/
&ELECTRONS
electron_maxstep = 600
conv_thr = 1.0d-10
mixing_mode = 'plain'
mixing_beta = 0.7
diagonalization = 'david'
diago_full_acc = .TRUE.
startingpot = 'atomic'
startingwfc = 'atomic+random'
/
&IONS
ion_dynamics='bfgs'
ion_positions='default'
/
ATOMIC_SPECIES
C  12.011   C_ONCV_PBE-1.2.upf
N  14.0067  N_ONCV_PBE-1.2.upf
CELL_PARAMETERS angstrom
14.272  0.0000  0.0000
0.0000  14.272  0.0000
0.0000  0.0000  14.272
K_POINTS gamma
ATOMIC_POSITIONS crystal
C    0.000001365820    0.000003116060    0.000007964220
C   -0.000053074680   -0.000039714340    0.250015360540
C   -0.000028505120   -0.000011162660    0.500007340940
C    0.000055868820    0.000046805960    0.749996720080
C   -0.000053285640    0.250010558660   -0.000034582760
C   -0.000083190860    0.249974319240    0.249979338200
C   -0.000119104700    0.250042327200    0.499983916500
C   -0.000087419780    0.250047010540    0.749959629340
C   -0.000028525580    0.500002429660   -0.000005410800
C   -0.000119217760    0.499978654140    0.250047929860
C   -0.000023767900    0.499999654720    0.500005244760
C    0.000065863360    0.500022940300    0.749975413900
C    0.000055982100    0.749991873480    0.000052373980
C   -0.000087253940    0.749954193820    0.250052637220
C    0.000065845580    0.749969871020    0.500028249460
C    0.000213509200    0.750037856180    0.750043236420
C    0.250002393160   -0.000052120280   -0.000045991120
C    0.249950102940   -0.000065859860    0.249961270500
C    0.250026958120   -0.000122976140    0.499974211960
C    0.250045192060   -0.000106415880    0.749954762120
C    0.249949642520    0.249955049080   -0.000059441200
C    0.249985890040    0.250002269660    0.250008459240
C    0.249509623360    0.249491569380    0.500019822600
C    0.249989117940    0.249968908120    0.749927589460
C    0.250027056720    0.499968400260   -0.000116565960
C    0.249509657720    0.500012961480    0.249498182980
C    0.250426346020    0.499801237060    0.499808325640
C    0.249921869960    0.499809603400    0.750052668600
C    0.250045602200    0.749948479860   -0.000098720760
C    0.249989881620    0.749920230220    0.249976648200
C    0.249921800960    0.750045753140    0.499816481800
C    0.250373417400    0.749732852440    0.749739980840
C    0.499996225680   -0.000012273240   -0.000006180760
C    0.499965476900   -0.000100994900    0.250033570880
C    0.499997176540   -0.000036759540    0.500005397220
C    0.500028474200    0.000039076840    0.749989303040
C    0.499965299040    0.250028016000   -0.000095400180
C    0.499942914400    0.249551959060    0.249557910600
C    0.499797620760    0.250291467700    0.499851332860
C    0.499836120980    0.249804150580    0.750154024640
C    0.499997320760    0.499999972680   -0.000031108160
C    0.499797939080    0.499844431180    0.250298258720
C    0.500133107940    0.500095248140    0.749582476160
C    0.500028792500    0.749983393720    0.000045691660
C    0.499836657980    0.750147911900    0.249810401480
C    0.500133355200    0.749576286060    0.500101569660
C    0.500335238260    0.750402318620    0.750408348400
C    0.749993856620    0.000058460480    0.000063249480
C    0.749947467820   -0.000066318880    0.250058927640
C    0.749978265340    0.000062693700    0.500037812940
C    0.750053457520    0.000195153320    0.750059278640
C    0.749947381120    0.250054293580   -0.000061507340
C    0.749889936400    0.250006148740    0.250011082420
C    0.749993546640    0.249938093580    0.499895850740
C    0.749762744100    0.250343641040    0.749788893560
C    0.749978281460    0.500033155040    0.000067690920
C    0.749993400200    0.499889873420    0.249944366940
C    0.749538163060    0.500137266160    0.500143650820
C    0.750418745100    0.500328346120    0.750441728660
C    0.750053553120    0.750054504600    0.000200218240
C    0.749762346580    0.749782998820    0.250349686340
C    0.750418560280    0.750436123040    0.500333906920
C    0.750281984480    0.750278115300    0.750283123840
C   -0.000046251600    0.124986569440    0.124991362060
C   -0.000075745020    0.124973281100    0.374985875200
C   -0.000089193200    0.125060201220    0.624991855460
C   -0.000026449440    0.125036813480    0.874971935580
C   -0.000075908000    0.374981020020    0.124978580440
C   -0.000118515120    0.375008557520    0.375014007980
C   -0.000051001980    0.375039673880    0.624963753180
C   -0.000045403560    0.375018633500    0.874960779300
C   -0.000089087620    0.624986699180    0.125066098600
C   -0.000051081840    0.624958286320    0.375045262260
C    0.000120145140    0.625000718440    0.625006300340
C    0.000142346280    0.625023934540    0.875035983620
C   -0.000026240900    0.874966936080    0.125041997240
C   -0.000045171260    0.874955241480    0.375023775020
C    0.000142270240    0.875030307480    0.625028914280
C    0.000109731800    0.875020744160    0.875025806180
C    0.249960390960    0.124964224800    0.124970108080
C    0.249952024060    0.124894535820    0.374964146260
C    0.249912740960    0.124858833840    0.624974068220
C    0.249987184560    0.124955965900    0.874948700240
C    0.249952121740    0.374958224860    0.124900502440
C    0.250145320580    0.375079855660    0.375086563580
C    0.249963898120    0.374858064280    0.624882557520
C    0.249964263460    0.374952905800    0.874962096160
C    0.249913399540    0.624967157600    0.124866539000
C    0.249964285700    0.624875058460    0.374865647580
C    0.250585102940    0.624539112700    0.624545997420
C    0.250305689860    0.624923084460    0.874716689460
C    0.249987841440    0.874942156360    0.124963105140
C    0.249964846600    0.874954976740    0.374959840800
C    0.250305724880    0.874709378440    0.624929473980
C    0.250097340640    0.874895662480    0.874902356000
C    0.499975372680    0.124826412640    0.124831825300
C    0.499927734020    0.124975702100    0.374973597820
C    0.499928697360    0.125075263720    0.624916185380
C    0.499952804820    0.124937161140    0.875051874840
C    0.499927820200    0.374967974360    0.124981356280
C    0.500159715140    0.375140049040    0.375146930180
C    0.499067484360    0.375724223060    0.623901689340
C    0.499989626480    0.375130528320    0.874796306120
C    0.499929405860    0.624909646160    0.125082056240
C    0.499067824520    0.623895463340    0.375730556780
C    0.502849598860    0.624769712780    0.624775898580
C    0.500130722700    0.625021061440    0.874978773120
C    0.499953183680    0.875045564040    0.124943749640
C    0.499989945400    0.874790469700    0.375136518180
C    0.500130654700    0.874972768820    0.625026736720
C    0.500101225020    0.875134382820    0.875140349520
C    0.749950050620    0.125001586880    0.125006189020
C    0.749952295360    0.124975117720    0.374994121560
C    0.749869402800    0.125178746260    0.624949649840
C    0.749947072380    0.125172327060    0.874938902520
C    0.749952165580    0.374989311760    0.124980203260
C    0.749820207940    0.375011732620    0.375017570900
C    0.749168773360    0.375795969100    0.624821443240
C    0.749904823280    0.375131026480    0.874911419840
C    0.749869400500    0.624944415060    0.125184286660
C    0.749168990080    0.624815254540    0.375802229820
C    0.750566371940    0.625440044280    0.625445903600
C    0.750221379860    0.625175178860    0.875292655920
C    0.749947060640    0.874933859020    0.125177437820
C    0.749904720680    0.874906268760    0.375136068020
C    0.750221216000    0.875287550180    0.625179919400
C    0.750107628100    0.875154240140    0.875159013220
C    0.124974007800   -0.000037052600    0.124983985400
C    0.124947938240   -0.000061968640    0.374978410500
C    0.125055409920   -0.000094893080    0.624986313640
C    0.125037857980   -0.000033905760    0.874965284000
C    0.124951697780    0.249976895600    0.124975164000
C    0.124903527320    0.249976742100    0.374969260640
C    0.124884600300    0.249916212860    0.624968770860
C    0.124964891680    0.249987655680    0.874946299320
C    0.124793678440    0.499994480260    0.124805079580
C    0.125004572900    0.499946255140    0.374971858720
C    0.125140508300    0.499917171660    0.624879617560
C    0.124974098800    0.499949081800    0.875010574920
C    0.124985976940    0.749957603060    0.124986302760
C    0.124962480480    0.749968217340    0.374971260740
C    0.125214014160    0.749840630480    0.624915468980
C    0.125183117080    0.749933172480    0.874909043640
C    0.374965670780   -0.000055311220    0.124956633100
C    0.374990885860   -0.000114227680    0.374998306960
C    0.375036347760   -0.000072851680    0.624964710780
C    0.375015872740   -0.000060299800    0.874961275700
C    0.374939182440    0.249965084740    0.124906837220
C    0.375029840320    0.250071890780    0.375076343560
C    0.374880056140    0.249873760480    0.624925998700
C    0.374961942240    0.249940762980    0.874980769940
C    0.374952374260    0.499950456600    0.124968393220
C    0.375248230940    0.500436003940    0.375131603980
C    0.376060160740    0.499029403700    0.623683614000
C    0.375151955400    0.499973550860    0.874774845420
C    0.374968937620    0.749994288140    0.124924898680
C    0.374995088060    0.749906567780    0.374937678040
C    0.375821807520    0.749169429620    0.624755530220
C    0.375138738020    0.749886959200    0.874875825420
C    0.624981238020   -0.000065245780    0.125068033700
C    0.624956171660   -0.000044498960    0.375045391240
C    0.625013281680    0.000097772460    0.625021025420
C    0.625031305780    0.000127842200    0.875053406960
C    0.624942815760    0.249938370920    0.124907807860
C    0.624834259220    0.249941769180    0.374909423560
C    0.624580473600    0.250454203900    0.624643305740
C    0.624941930440    0.250283000620    0.874762691800
C    0.624884396600    0.499948447040    0.125100838200
C    0.623647473440    0.499311199060    0.375905053520
C    0.624778773480    0.502850649660    0.624846423220
C    0.625033557680    0.500120749180    0.874994983040
C    0.624932415220    0.749889945640    0.125166969820
C    0.624780782740    0.749230091200    0.375784607340
C    0.625435551600    0.750581012340    0.625435374540
C    0.625177742020    0.750216471560    0.875286874880
C    0.874961353000   -0.000016550220    0.125047732540
C    0.874947251340   -0.000027180800    0.375029455740
C    0.875042732360    0.000134341220    0.625036106720
C    0.875029026800    0.000103667140    0.875033827580
C    0.874927911920    0.250004060760    0.124989467620
C    0.874921772640    0.249992838680    0.374991379080
C    0.874718037360    0.250302536900    0.624956960860
C    0.874910662560    0.250096531240    0.874927181680
C    0.874984080680    0.499971453220    0.125005896000
C    0.874754562340    0.500002305060    0.375163321680
C    0.874973976380    0.500126293660    0.625037919300
C    0.875144169520    0.500100597240    0.875149544140
C    0.874921887140    0.749953423960    0.125178104120
C    0.874885688500    0.749906600260    0.375138458760
C    0.875291239280    0.750214886500    0.625176989800
C    0.875161327640    0.750101184540    0.875155626160
C    0.124973745340    0.124978566980   -0.000031608380
C    0.124951810380    0.124969532620    0.249982192260
C    0.124793379300    0.124798540560    0.500000443040
C    0.124985438980    0.124979710180    0.749963391500
C    0.124947613880    0.374972896000   -0.000055920240
C    0.124903505960    0.374963476820    0.249982666100
C    0.125004625220    0.374965634040    0.499952497120
C    0.124961968160    0.374964786200    0.749974774600
C    0.125055670160    0.624980724780   -0.000088052280
C    0.124885110860    0.624962447300    0.249922959660
C    0.125140445000    0.624873094300    0.499923651360
C    0.125214011880    0.624909130200    0.749847365680
C    0.125038086340    0.874959869940   -0.000027969380
C    0.124965486120    0.874940292420    0.249993679320
C    0.124974456820    0.875003949680    0.499955123240
C    0.125183061060    0.874902425320    0.749938991420
C    0.374965380740    0.124950050880   -0.000048836120
C    0.374939229020    0.124901067060    0.249970785740
C    0.374951938980    0.124961907560    0.499956931900
C    0.374968307800    0.124917072240    0.750001471340
C    0.374990782260    0.374992525920   -0.000108306340
C    0.375029936380    0.375069471340    0.250078699020
C    0.375247976300    0.375124920440    0.500442692360
C    0.374994675700    0.374930796760    0.749913205760
C    0.375036719720    0.624958636260   -0.000065874220
C    0.374880595360    0.624918978700    0.249880832140
C    0.376060339920    0.623677193240    0.499035962440
C    0.375821830620    0.624748907160    0.749176111280
C    0.375016152220    0.874954695480   -0.000052938200
C    0.374962499680    0.874973717260    0.249948002240
C    0.375152026680    0.874768525900    0.499979825140
C    0.375138660020    0.874868671020    0.749893386700
C    0.624981179560    0.125062977620   -0.000060177560
C    0.624942895300    0.124902740700    0.249943344340
C    0.624884201040    0.125095260940    0.499953945080
C    0.624932051020    0.125160904560    0.749895789820
C    0.624956105500    0.375040413160   -0.000039411680
C    0.624834328160    0.374903561500    0.249947677440
C    0.623647023120    0.375898682420    0.499317689300
C    0.624780491600    0.375778665080    0.749235911140
C    0.625013475740    0.625015953600    0.000103184580
C    0.624580711960    0.624636590220    0.250460967020
C    0.624779018020    0.624840489780    0.502856600340
C    0.625435648240    0.625429533100    0.750587086800
C    0.625031369660    0.875048079400    0.000133339680
C    0.624942087700    0.874757349820    0.250288515320
C    0.625033538100    0.874989641000    0.500126010020
C    0.625177684000    0.875281569560    0.750221523920
C    0.874961303420    0.125043111960   -0.000011854240
C    0.874927995360    0.124984755980    0.250008595820
C    0.874984328500    0.125000495580    0.499976283700
C    0.874921998460    0.125172673900    0.749958459580
C    0.874947142740    0.375024936580   -0.000022190020
C    0.874921705140    0.374986318060    0.249998075160
C    0.874754655780    0.375157276100    0.500008131940
C    0.874886024060    0.375132922820    0.749912108980
C    0.875042806240    0.625031510260    0.000139522400
C    0.874717613520    0.624951282680    0.250308624620
C    0.874973872840    0.625032351880    0.500131937880
C    0.875291327300    0.625172027560    0.750220015060
C    0.875029062540    0.875029150020    0.000108511780
C    0.874910602560    0.874922036460    0.250101510100
C    0.875144056160    0.875144441460    0.500105285320
C    0.875161261180    0.875150730960    0.750105814780
C    0.187458647820    0.062461436860    0.187475726500
C    0.187433770240    0.062380357320    0.437470708000
C    0.187504715320    0.062403679480    0.687470775660
C    0.187503109940    0.062466387860    0.937461165800
C    0.187444579700    0.312462531980    0.187463938580
C    0.187419372120    0.312391932440    0.437428716460
C    0.187435351840    0.312466688220    0.687427771180
C    0.187458906660    0.312473296660    0.937454321540
C    0.187170286240    0.562402297980    0.187168858000
C    0.187618465060    0.562353296160    0.437441696180
C    0.187745789540    0.562376410420    0.687325058320
C    0.187616871480    0.562454257960    0.937346644820
C    0.187490435620    0.812435381980    0.187489316940
C    0.187392257640    0.812571331960    0.437510488840
C    0.187761099300    0.812298773040    0.687387750020
C    0.187587246480    0.812440526180    0.937425439200
C    0.437453055120    0.062395282800    0.187453125940
C    0.437454765600    0.062439093500    0.437474472340
C    0.437504394680    0.062496109360    0.687461282440
C    0.437507977280    0.062433981920    0.937505007360
C    0.437382240520    0.312399862860    0.187399157680
C    0.437414960360    0.312698280220    0.437511594280
C    0.437664755140    0.312002372520    0.687906758660
C    0.437490885640    0.312525795520    0.937374107340
C    0.437433233740    0.562385455240    0.187539879020
C    0.438696532860    0.561851081440    0.686245304100
C    0.437555562540    0.562496478560    0.937420079480
C    0.437517323240    0.812628729140    0.187333740240
C    0.437571305380    0.812251726520    0.437548786120
C    0.437770648340    0.812336941740    0.687465839180
C    0.437571593560    0.812470583120    0.937481422960
C    0.687458187060    0.062440571060    0.187525034420
C    0.687437276020    0.062527379660    0.437524281480
C    0.687488947400    0.062642462860    0.687504643200
C    0.687489841060    0.062613918480    0.937498681240
C    0.687401392160    0.312493164760    0.187446405840
C    0.687690937460    0.312183193820    0.437653902260
C    0.687114390020    0.312970746960    0.687169451060
C    0.687447840920    0.312601821340    0.937413159460
C    0.687332549800    0.562439189180    0.187689173720
C    0.686224649860    0.561947004200    0.438697629600
C    0.688436047100    0.562930223380    0.688466217960
C    0.687555042800    0.562579458560    0.937599089360
C    0.687400283080    0.812343074260    0.187739489640
C    0.687484318120    0.812377508520    0.437756829100
C    0.687805440680    0.812923437940    0.687806159620
C    0.687605403220    0.812635093180    0.937721246300
C    0.937448907920    0.062482848900    0.187519420060
C    0.937466950620    0.062472595680    0.437520679260
C    0.937482881600    0.062611738760    0.687497727740
C    0.937498014220    0.062550828340    0.937507689340
C    0.937425767440    0.312490115960    0.187490047620
C    0.937342684200    0.312552203880    0.437513276280
C    0.937387371200    0.312609207520    0.687455435540
C    0.937436095360    0.312543577440    0.937454255440
C    0.937340977480    0.562467553680    0.187635364520
C    0.937418749900    0.562505443920    0.437566701760
C    0.937597662700    0.562576221160    0.687552854000
C    0.937587839460    0.562530748260    0.937590108380
C    0.937434819300    0.812455353920    0.187591799140
C    0.937493288900    0.812474466620    0.437577641120
C    0.937728460300    0.812624927660    0.687602641580
C    0.937598565260    0.812545877440    0.937596002620
C    0.062477743080    0.062485717840    0.062490807500
C    0.062447112520    0.062466185120    0.312495004140
C    0.062407352520    0.062413044400    0.562471989580
C    0.062517986800    0.062513124000    0.812479090340
C    0.062446877440    0.312489942620    0.062471753920
C    0.062379565900    0.312459946840    0.312465473000
C    0.062438923840    0.312500564460    0.562456194660
C    0.062443947160    0.312514768900    0.812455981980
C    0.062407616040    0.562466505980    0.062419474360
C    0.062438922100    0.562450478080    0.312506503060
C    0.062584085240    0.562464938840    0.562471015260
C    0.062608726960    0.562494617680    0.812459413740
C    0.062518356740    0.812473864640    0.062518927460
C    0.062444436540    0.812450082600    0.312520578060
C    0.062608811120    0.812453312000    0.562500273700
C    0.062680948940    0.812481314000    0.812487061400
C    0.312477025280    0.062458041960    0.062464326420
C    0.312438215860    0.062382998440    0.312456042860
C    0.312489054120    0.062413184880    0.562459227400
C    0.312510673380    0.062418707040    0.812463533320
C    0.312438109840    0.312450271580    0.062388882400
C    0.312494823500    0.312510523340    0.312517387160
C    0.311766401020    0.311704979040    0.562132256600
C    0.312498769500    0.312475158640    0.812474861200
C    0.312489499300    0.562452957340    0.062420076940
C    0.311766583920    0.562125245440    0.311711749620
C    0.313286712020    0.561972171480    0.561978807780
C    0.312893319560    0.562353686300    0.812064331240
C    0.312511348140    0.812456618240    0.062426623560
C    0.312499397060    0.812467619680    0.312482579140
C    0.312893396640    0.812057358420    0.562360351680
C    0.312662109560    0.812350086880    0.812357048540
C    0.562463608640    0.062432104780    0.062437366040
C    0.562439662300    0.062439067780    0.312507688000
C    0.562470568400    0.062547828000    0.562491165260
C    0.562502430860    0.062574653420    0.812491423600
C    0.562439606420    0.312502498640    0.062444299360
C    0.562095306600    0.311785439560    0.311791648500
C    0.561999217600    0.313058190700    0.562158348040
C    0.562377216800    0.312844108180    0.812120396240
C    0.562470913740    0.562485635800    0.062553539600
C    0.561999536700    0.562151519920    0.313064943080
C    0.562645787060    0.562626687160    0.812524208440
C    0.562502807820    0.812485470260    0.062580992020
C    0.562377604520    0.812114611880    0.312850014840
C    0.562645888380    0.812518418140    0.562632451400
C    0.562672788860    0.812827113080    0.812832545220
C    0.812471217240    0.062527051900    0.062531661920
C    0.812441527640    0.062463258080    0.312530219820
C    0.812464204320    0.062600624320    0.562515994800
C    0.812494345140    0.062671178000    0.812504806100
C    0.812441413280    0.312525701820    0.062468088400
C    0.812410490620    0.312520299360    0.312525529740
C    0.812048147260    0.312898849260    0.562407822620
C    0.812372184760    0.312652940900    0.812390294120
C    0.812464188640    0.562511268960    0.062605806880
C    0.812047971020    0.562401695400    0.312905230940
C    0.812499338700    0.562648665860    0.562654464520
C    0.812840032480    0.562669299100    0.812845627180
C    0.812494375280    0.812500002300    0.062676217900
C    0.812371926940    0.812384876980    0.312658282020
C    0.812839915020    0.812840488900    0.562674156960
C    0.812701213620    0.812694244600    0.812698983460
C    0.062444866420    0.187477146220    0.187482300520
C    0.062380772420    0.187453965300    0.437475028880
C    0.062419482160    0.187508990560    0.687471355720
C    0.062468383080    0.187507698720    0.937464772960
C    0.062380727680    0.437469597480    0.187459737840
C    0.062460082940    0.437468896600    0.437474740980
C    0.062538079220    0.437506001840    0.687441549100
C    0.062443935800    0.437510576400    0.937491408060
C    0.062419919080    0.687465690140    0.187515243860
C    0.062538127180    0.687435611480    0.437511896860
C    0.062674050840    0.687471525500    0.687477590860
C    0.062617000780    0.687484911760    0.937476526180
C    0.062468804360    0.937459382280    0.187513021480
C    0.062444298020    0.937485339700    0.437516019040
C    0.062616896260    0.937470225300    0.687490204500
C    0.062549737320    0.937494999940    0.937500266380
C    0.312442807720    0.187456991280    0.187462801980
C    0.312365069120    0.187377500180    0.437430623800
C    0.312471618340    0.187381450320    0.687446681960
C    0.312469169840    0.187454503020    0.937462773160
C    0.312365382260    0.437423916660    0.187383961400
C    0.312869299020    0.437499119200    0.437505843780
C    0.312188244060    0.437608205320    0.687779937180
C    0.312533925860    0.437488810440    0.937358965320
C    0.312472328980    0.687439302820    0.187389340420
C    0.312188381760    0.687773281620    0.437615091280
C    0.313021628200    0.687093432100    0.687100362060
C    0.312606037100    0.687438551580    0.937376305120
C    0.312469858020    0.937455869040    0.187461627060
C    0.312534141220    0.937352702220    0.437494883760
C    0.312605891060    0.937368879660    0.687444724260
C    0.312537102160    0.937429390000    0.937436145980
C    0.562386565280    0.187214320060    0.187219649760
C    0.562339279260    0.187557215000    0.437476194420
C    0.562395082900    0.187649059380    0.687402891560
C    0.562458559280    0.187604865220    0.937379622340
C    0.562339545100    0.437470192240    0.187563084780
C    0.561887387720    0.438605922820    0.686307214080
C    0.562501759640    0.437550598020    0.937434912080
C    0.562395827540    0.687396180400    0.187655912340
C    0.561887835300    0.686301355360    0.438612010340
C    0.562942216140    0.688421605980    0.688427840940
C    0.562580024020    0.687552199040    0.937587754840
C    0.562458834540    0.937374136080    0.187610475580
C    0.562501860440    0.937429561540    0.437555912580
C    0.562579901020    0.937582050660    0.687557463020
C    0.562532096260    0.937586771160    0.937592383780
C    0.812420523920    0.187507480560    0.187512102300
C    0.812529174060    0.187427156180    0.437530667280
C    0.812321317500    0.187742631200    0.687419812140
C    0.812447622200    0.187589245620    0.937453184800
C    0.812528920720    0.437525481480    0.187432781500
C    0.812207761060    0.437585958980    0.437592048420
C    0.812347086680    0.437768053340    0.687498379400
C    0.812476836260    0.437573596840    0.937506578680
C    0.812321023060    0.687414376960    0.187748449700
C    0.812346840580    0.687492597040    0.437773960840
C    0.812925850500    0.687801965640    0.687807150600
C    0.812636163140    0.687604034220    0.937723509300
C    0.812447671740    0.937448316820    0.187593996060
C    0.812476815160    0.937501607200    0.437578207360
C    0.812636044860    0.937718530560    0.687608619400
C    0.812549196000    0.937596642460    0.937601335160
C    0.187458374780    0.187470036640    0.062467378680
C    0.187444515480    0.187457987780    0.312468270720
C    0.187170026240    0.187161835340    0.562409048520
C    0.187489659800    0.187482260120    0.812441947460
C    0.187433865380    0.437465006820    0.062386478860
C    0.187419343280    0.437422113920    0.312398427840
C    0.187618514340    0.437434626660    0.562360368200
C    0.187391962120    0.437503662100    0.812578288040
C    0.187505336260    0.687464481500    0.062411218660
C    0.187436018860    0.687420575540    0.312474100620
C    0.187745746500    0.687318029220    0.562383310560
C    0.187761047140    0.687381196560    0.812305947580
C    0.187503535520    0.937455238780    0.062472605220
C    0.187459578960    0.937447722820    0.312479628880
C    0.187616965800    0.937339897280    0.562460118040
C    0.187587030040    0.937418519040    0.812446594800
C    0.437452921440    0.187447458740    0.062400955660
C    0.437382125740    0.187393236360    0.312405832340
C    0.437432583060    0.187532907860    0.562392484180
C    0.437516760140    0.187327103120    0.812635073980
C    0.437454954320    0.437468771260    0.062444859620
C    0.437415129520    0.437504574040    0.312705256460
C    0.437570921480    0.437542165940    0.812258030200
C    0.437505042400    0.687454791140    0.062503361840
C    0.437665254220    0.687900404020    0.312008875240
C    0.438696667000    0.686239007780    0.561857472540
C    0.437770619200    0.687459625420    0.812343558380
C    0.437508377520    0.937498399200    0.062440989860
C    0.437491264520    0.937368030120    0.312531941640
C    0.437555505540    0.937413975560    0.562502184500
C    0.437571401760    0.937474594840    0.812476676380
C    0.687458122880    0.187520312700    0.062445373160
C    0.687401442580    0.187441255640    0.312498248180
C    0.687332334480    0.187683264380    0.562445031220
C    0.687400249100    0.187733843700    0.812348567840
C    0.687437306620    0.437519387580    0.062532443140
C    0.687691128300    0.437647794100    0.312189142980
C    0.686224342160    0.438691434820    0.561953194780
C    0.687484347680    0.437751408100    0.812382938260
C    0.687489155640    0.687499506560    0.062647889060
C    0.687114444300    0.687163029620    0.312977249020
C    0.688436071600    0.688460232060    0.562936267040
C    0.687805532200    0.687801083540    0.812928816560
C    0.687489881980    0.937493710400    0.062618935820
C    0.687447941000    0.937408156320    0.312606756400
C    0.687554974360    0.937594000700    0.562584280020
C    0.687605352180    0.937716185280    0.812639962480
C    0.937448797840    0.187514806100    0.062487633760
C    0.937425852080    0.187485045520    0.312494908160
C    0.937341242320    0.187629653980    0.562472672220
C    0.937434698500    0.187586597400    0.812460423860
C    0.937466770120    0.437516006120    0.062477900740
C    0.937342618700    0.437507970240    0.312557713640
C    0.937418803020    0.437561111340    0.562510908540
C    0.937493372460    0.437572582100    0.812479814260
C    0.937482963300    0.687492903260    0.062617207620
C    0.937387136280    0.687450051840    0.312614801420
C    0.937597649800    0.687547497760    0.562581506580
C    0.937728506900    0.687597718040    0.812630144780
C    0.937498126100    0.937502959120    0.062555616340
C    0.937436273460    0.937449093760    0.312548349480
C    0.937587761100    0.937584730620    0.562535452280
C    0.937598495420    0.937590982680    0.812550598980
C    0.565695906640    0.432701765640    0.432707960480
C    0.432969232920    0.432491043340    0.565917985680
C    0.432969458440    0.565911824620    0.432497286840
N    0.568127819160    0.568087428840    0.568093308080
