&CONTROL
calculation = 'scf'
restart_mode = 'from_scratch'
prefix = 'pwscf'
pseudo_dir = './'
outdir = './'
tprnfor = .TRUE.
verbosity = 'high'
forc_conv_thr = 0.000039
/
&SYSTEM
ibrav = 0
nat = 511
ntyp = 2
ecutwfc = 80
tot_charge = -1
nspin = 2
tot_magnetization = 2
occupations = 'from_input'
nbnd = 1032
/
&ELECTRONS
electron_maxstep = 100
conv_thr = 1.0d-10
mixing_mode = 'plain'
mixing_beta = 0.7
diagonalization = 'david'
diago_full_acc = .TRUE.
startingpot = 'atomic'
startingwfc = 'atomic+random'
/
&IONS
ion_dynamics='bfgs'
ion_positions='default'
/
ATOMIC_SPECIES
C  12.011   C_ONCV_PBE-1.2.upf
N  14.0067  N_ONCV_PBE-1.2.upf
CELL_PARAMETERS angstrom
14.272  0.0000  0.0000
0.0000  14.272  0.0000
0.0000  0.0000  14.272
K_POINTS gamma
OCCUPATIONS
1 1 1 1 1 1 1 1 1 1
1 1 1 1 1 1 1 1 1 1
1 1 1 1 1 1 1 1 1 1
1 1 1 1 1 1 1 1 1 1
1 1 1 1 1 1 1 1 1 1
1 1 1 1 1 1 1 1 1 1
1 1 1 1 1 1 1 1 1 1
1 1 1 1 1 1 1 1 1 1
1 1 1 1 1 1 1 1 1 1
1 1 1 1 1 1 1 1 1 1
1 1 1 1 1 1 1 1 1 1
1 1 1 1 1 1 1 1 1 1
1 1 1 1 1 1 1 1 1 1
1 1 1 1 1 1 1 1 1 1
1 1 1 1 1 1 1 1 1 1
1 1 1 1 1 1 1 1 1 1
1 1 1 1 1 1 1 1 1 1
1 1 1 1 1 1 1 1 1 1
1 1 1 1 1 1 1 1 1 1
1 1 1 1 1 1 1 1 1 1
1 1 1 1 1 1 1 1 1 1
1 1 1 1 1 1 1 1 1 1
1 1 1 1 1 1 1 1 1 1
1 1 1 1 1 1 1 1 1 1
1 1 1 1 1 1 1 1 1 1
1 1 1 1 1 1 1 1 1 1
1 1 1 1 1 1 1 1 1 1
1 1 1 1 1 1 1 1 1 1
1 1 1 1 1 1 1 1 1 1
1 1 1 1 1 1 1 1 1 1
1 1 1 1 1 1 1 1 1 1
1 1 1 1 1 1 1 1 1 1
1 1 1 1 1 1 1 1 1 1
1 1 1 1 1 1 1 1 1 1
1 1 1 1 1 1 1 1 1 1
1 1 1 1 1 1 1 1 1 1
1 1 1 1 1 1 1 1 1 1
1 1 1 1 1 1 1 1 1 1
1 1 1 1 1 1 1 1 1 1
1 1 1 1 1 1 1 1 1 1
1 1 1 1 1 1 1 1 1 1
1 1 1 1 1 1 1 1 1 1
1 1 1 1 1 1 1 1 1 1
1 1 1 1 1 1 1 1 1 1
1 1 1 1 1 1 1 1 1 1
1 1 1 1 1 1 1 1 1 1
1 1 1 1 1 1 1 1 1 1
1 1 1 1 1 1 1 1 1 1
1 1 1 1 1 1 1 1 1 1
1 1 1 1 1 1 1 1 1 1
1 1 1 1 1 1 1 1 1 1
1 1 1 1 1 1 1 1 1 1
1 1 1 1 1 1 1 1 1 1
1 1 1 1 1 1 1 1 1 1
1 1 1 1 1 1 1 1 1 1
1 1 1 1 1 1 1 1 1 1
1 1 1 1 1 1 1 1 1 1
1 1 1 1 1 1 1 1 1 1
1 1 1 1 1 1 1 1 1 1
1 1 1 1 1 1 1 1 1 1
1 1 1 1 1 1 1 1 1 1
1 1 1 1 1 1 1 1 1 1
1 1 1 1 1 1 1 1 1 1
1 1 1 1 1 1 1 1 1 1
1 1 1 1 1 1 1 1 1 1
1 1 1 1 1 1 1 1 1 1
1 1 1 1 1 1 1 1 1 1
1 1 1 1 1 1 1 1 1 1
1 1 1 1 1 1 1 1 1 1
1 1 1 1 1 1 1 1 1 1
1 1 1 1 1 1 1 1 1 1
1 1 1 1 1 1 1 1 1 1
1 1 1 1 1 1 1 1 1 1
1 1 1 1 1 1 1 1 1 1
1 1 1 1 1 1 1 1 1 1
1 1 1 1 1 1 1 1 1 1
1 1 1 1 1 1 1 1 1 1
1 1 1 1 1 1 1 1 1 1
1 1 1 1 1 1 1 1 1 1
1 1 1 1 1 1 1 1 1 1
1 1 1 1 1 1 1 1 1 1
1 1 1 1 1 1 1 1 1 1
1 1 1 1 1 1 1 1 1 1
1 1 1 1 1 1 1 1 1 1
1 1 1 1 1 1 1 1 1 1
1 1 1 1 1 1 1 1 1 1
1 1 1 1 1 1 1 1 1 1
1 1 1 1 1 1 1 1 1 1
1 1 1 1 1 1 1 1 1 1
1 1 1 1 1 1 1 1 1 1
1 1 1 1 1 1 1 1 1 1
1 1 1 1 1 1 1 1 1 1
1 1 1 1 1 1 1 1 1 1
1 1 1 1 1 1 1 1 1 1
1 1 1 1 1 1 1 1 1 1
1 1 1 1 1 1 1 1 1 1
1 1 1 1 1 1 1 1 1 1
1 1 1 1 1 1 1 1 1 1
1 1 1 1 1 1 1 1 1 1
1 1 1 1 1 1 1 1 1 1
1 1 1 1 1 1 1 1 1 1
1 1 1 1 1 1 1 1 1 1
1 1 1 1 0 0 0 0 0 0
0 0
1 1 1 1 1 1 1 1 1 1
1 1 1 1 1 1 1 1 1 1
1 1 1 1 1 1 1 1 1 1
1 1 1 1 1 1 1 1 1 1
1 1 1 1 1 1 1 1 1 1
1 1 1 1 1 1 1 1 1 1
1 1 1 1 1 1 1 1 1 1
1 1 1 1 1 1 1 1 1 1
1 1 1 1 1 1 1 1 1 1
1 1 1 1 1 1 1 1 1 1
1 1 1 1 1 1 1 1 1 1
1 1 1 1 1 1 1 1 1 1
1 1 1 1 1 1 1 1 1 1
1 1 1 1 1 1 1 1 1 1
1 1 1 1 1 1 1 1 1 1
1 1 1 1 1 1 1 1 1 1
1 1 1 1 1 1 1 1 1 1
1 1 1 1 1 1 1 1 1 1
1 1 1 1 1 1 1 1 1 1
1 1 1 1 1 1 1 1 1 1
1 1 1 1 1 1 1 1 1 1
1 1 1 1 1 1 1 1 1 1
1 1 1 1 1 1 1 1 1 1
1 1 1 1 1 1 1 1 1 1
1 1 1 1 1 1 1 1 1 1
1 1 1 1 1 1 1 1 1 1
1 1 1 1 1 1 1 1 1 1
1 1 1 1 1 1 1 1 1 1
1 1 1 1 1 1 1 1 1 1
1 1 1 1 1 1 1 1 1 1
1 1 1 1 1 1 1 1 1 1
1 1 1 1 1 1 1 1 1 1
1 1 1 1 1 1 1 1 1 1
1 1 1 1 1 1 1 1 1 1
1 1 1 1 1 1 1 1 1 1
1 1 1 1 1 1 1 1 1 1
1 1 1 1 1 1 1 1 1 1
1 1 1 1 1 1 1 1 1 1
1 1 1 1 1 1 1 1 1 1
1 1 1 1 1 1 1 1 1 1
1 1 1 1 1 1 1 1 1 1
1 1 1 1 1 1 1 1 1 1
1 1 1 1 1 1 1 1 1 1
1 1 1 1 1 1 1 1 1 1
1 1 1 1 1 1 1 1 1 1
1 1 1 1 1 1 1 1 1 1
1 1 1 1 1 1 1 1 1 1
1 1 1 1 1 1 1 1 1 1
1 1 1 1 1 1 1 1 1 1
1 1 1 1 1 1 1 1 1 1
1 1 1 1 1 1 1 1 1 1
1 1 1 1 1 1 1 1 1 1
1 1 1 1 1 1 1 1 1 1
1 1 1 1 1 1 1 1 1 1
1 1 1 1 1 1 1 1 1 1
1 1 1 1 1 1 1 1 1 1
1 1 1 1 1 1 1 1 1 1
1 1 1 1 1 1 1 1 1 1
1 1 1 1 1 1 1 1 1 1
1 1 1 1 1 1 1 1 1 1
1 1 1 1 1 1 1 1 1 1
1 1 1 1 1 1 1 1 1 1
1 1 1 1 1 1 1 1 1 1
1 1 1 1 1 1 1 1 1 1
1 1 1 1 1 1 1 1 1 1
1 1 1 1 1 1 1 1 1 1
1 1 1 1 1 1 1 1 1 1
1 1 1 1 1 1 1 1 1 1
1 1 1 1 1 1 1 1 1 1
1 1 1 1 1 1 1 1 1 1
1 1 1 1 1 1 1 1 1 1
1 1 1 1 1 1 1 1 1 1
1 1 1 1 1 1 1 1 1 1
1 1 1 1 1 1 1 1 1 1
1 1 1 1 1 1 1 1 1 1
1 1 1 1 1 1 1 1 1 1
1 1 1 1 1 1 1 1 1 1
1 1 1 1 1 1 1 1 1 1
1 1 1 1 1 1 1 1 1 1
1 1 1 1 1 1 1 1 1 1
1 1 1 1 1 1 1 1 1 1
1 1 1 1 1 1 1 1 1 1
1 1 1 1 1 1 1 1 1 1
1 1 1 1 1 1 1 1 1 1
1 1 1 1 1 1 1 1 1 1
1 1 1 1 1 1 1 1 1 1
1 1 1 1 1 1 1 1 1 1
1 1 1 1 1 1 1 1 1 1
1 1 1 1 1 1 1 1 1 1
1 1 1 1 1 1 1 1 1 1
1 1 1 1 1 1 1 1 1 1
1 1 1 1 1 1 1 1 1 1
1 1 1 1 1 1 1 1 1 1
1 1 1 1 1 1 1 1 1 1
1 1 1 1 1 1 1 1 1 1
1 1 1 1 1 1 1 1 1 1
1 1 1 1 1 1 1 1 1 1
1 1 1 1 1 1 1 1 1 1
1 1 1 1 1 1 1 1 1 1
1 1 1 1 1 1 1 1 1 1
1 1 1 1 1 1 1 1 1 1
1 1 1 1 1 1 1 1 1 1
1 0 1 0 0 0 0 0 0 0
0 0
ATOMIC_POSITIONS crystal
C    0.000005615810    0.000006491930    0.000008920510
C   -0.000053368040   -0.000046678870    0.250015623720
C   -0.000015336510   -0.000006658280    0.500007269270
C    0.000065582210    0.000061057780    0.749997050240
C   -0.000053473020    0.250013215280   -0.000044116580
C   -0.000095096630    0.249967068420    0.249969582400
C   -0.000128610250    0.250042569500    0.499975035800
C   -0.000082967090    0.250058214770    0.749950070770
C   -0.000015346740    0.500004805630   -0.000003784350
C   -0.000128671280    0.499972398620    0.250045373830
C   -0.000031641600    0.500001524910    0.500004322430
C    0.000073599230    0.500032713300    0.749978394050
C    0.000065640850    0.749994627940    0.000063843290
C   -0.000082887170    0.749947359010    0.250061031610
C    0.000073584340    0.749975624610    0.500035373880
C    0.000231379000    0.750053642240    0.750056334360
C    0.250009135530   -0.000052883840   -0.000049824260
C    0.249954962270   -0.000086424630    0.249960547050
C    0.250034886460   -0.000130532470    0.499970187030
C    0.250057306530   -0.000092457140    0.749947643660
C    0.249954731560    0.249957431340   -0.000083218800
C    0.249967662070    0.249975847380    0.249978947170
C    0.249501572180    0.249492544690    0.499981194700
C    0.249997803670    0.249987694760    0.749899753530
C    0.250034937260    0.499967269680   -0.000127339880
C    0.249501583360    0.499977760140    0.249495842490
C    0.250370714610    0.499785644430    0.499789182720
C    0.249956986430    0.499836071300    0.750002896400
C    0.250057512600    0.749944500530   -0.000088616580
C    0.249998181510    0.749896077910    0.249991561300
C    0.249956946430    0.749999440170    0.499839516500
C    0.250384821750    0.749745199370    0.749748764070
C    0.500001713640   -0.000007215070   -0.000004170830
C    0.499965825000   -0.000119542850    0.250038192840
C    0.500000294320   -0.000038120920    0.500004396160
C    0.500035489250    0.000060214970    0.749985338120
C    0.499965729570    0.250035414900   -0.000116753490
C    0.499942743600    0.249522738030    0.249525710800
C    0.499783839280    0.250303281450    0.499810691330
C    0.499849341590    0.249898126240    0.750053570920
C    0.500000363930    0.500001682890   -0.000035308730
C    0.499783993440    0.499807242490    0.250306663960
C    0.500149381720    0.500130434320    0.749555772880
C    0.500035651900    0.749982382960    0.000063514380
C    0.499849610090    0.750050520550    0.249901245190
C    0.500149502850    0.749552678330    0.500133602580
C    0.500371210880    0.750459274510    0.750462296900
C    0.749995621010    0.000066882540    0.000069281040
C    0.749943997510   -0.000072411640    0.250064177320
C    0.749979820770    0.000072023900    0.500040157120
C    0.750061440910    0.000222205060    0.750064353970
C    0.749943949160    0.250061856790   -0.000070007370
C    0.749880929000    0.250006314570    0.250008784910
C    0.749973330420    0.249965098740    0.499879200970
C    0.749760143200    0.250369935070    0.749773217930
C    0.749979825830    0.500037822670    0.000074517510
C    0.749973257200    0.499876211310    0.249968231920
C    0.749533609330    0.500151446830    0.500154647660
C    0.750467486750    0.500367750810    0.750478983030
C    0.750061491210    0.750061965450    0.000224742020
C    0.749759947940    0.749770273560    0.250372958220
C    0.750467396340    0.750476178220    0.500370538710
C    0.750310773640    0.750308835550    0.750311347320
C   -0.000048961000    0.124983442470    0.124985843780
C   -0.000081882460    0.124966790200    0.374980149700
C   -0.000084585650    0.125071144560    0.624985531430
C   -0.000022063520    0.125046168440    0.874966152590
C   -0.000081963450    0.374977713110    0.124969439370
C   -0.000134166010    0.375003280710    0.375006011940
C   -0.000054566340    0.375045950490    0.624958177590
C   -0.000036813480    0.375025911000    0.874953625850
C   -0.000084535860    0.624982954290    0.125074092250
C   -0.000054612270    0.624955446660    0.375048748180
C    0.000126281370    0.625011665320    0.625014459770
C    0.000158256490    0.625032389620    0.875049029560
C   -0.000021959750    0.874963656340    0.125048764320
C   -0.000036701330    0.874950859940    0.375028489760
C    0.000158215970    0.875046192490    0.625034881490
C    0.000121320000    0.875031136930    0.875033671940
C    0.249960841030    0.124952233750    0.124955177390
C    0.249945272480    0.124876805260    0.374948059580
C    0.249922525330    0.124874005470    0.624954387310
C    0.249995456430    0.124967791300    0.874932092270
C    0.249945317820    0.374945087880    0.124879783070
C    0.250080066040    0.375033420930    0.375036775390
C    0.249961104110    0.374868674590    0.624843392960
C    0.249981403830    0.374967174200    0.874929608980
C    0.249922853120    0.624950927500    0.124877845050
C    0.249961291900    0.624839644930    0.374872465240
C    0.250554744820    0.624558637150    0.624562081010
C    0.250321125430    0.624930393330    0.874710942530
C    0.249995785870    0.874928823830    0.124971356420
C    0.249981690900    0.874926054770    0.374970650200
C    0.250321138440    0.874707292020    0.624933595590
C    0.250109219970    0.874903779840    0.874907122600
C    0.499975639190    0.124813706820    0.124816410650
C    0.499922679160    0.124967504850    0.374960268910
C    0.499929793980    0.125096916710    0.624894707640
C    0.499959707410    0.124977281170    0.875013860920
C    0.499922717250    0.374957454680    0.124970320440
C    0.500189744220    0.375093951520    0.375097387590
C    0.499143694030    0.375879408430    0.623707585520
C    0.499994968340    0.375153917760    0.874765328910
C    0.499930150730    0.624891439530    0.125100296970
C    0.499143856610    0.623704476520    0.375882571290
C    0.502987467230    0.624859455390    0.624862562790
C    0.500144279250    0.625036023320    0.874984975760
C    0.499959902840    0.875010709020    0.124980569420
C    0.499995131300    0.874762418700    0.375156914190
C    0.500144243750    0.874981976610    0.625038865960
C    0.500114129410    0.875159758960    0.875162743310
C    0.749946213860    0.125002036540    0.125004339110
C    0.749945425780    0.124978774260    0.374990424630
C    0.749866190100    0.125201125830    0.624939895320
C    0.749947527040    0.125191346330    0.874932980710
C    0.749945355890    0.374988016230    0.124981313530
C    0.749795171120    0.375019238510    0.375022158150
C    0.749162613230    0.375831979400    0.624807394520
C    0.749905261790    0.375147130140    0.874903731370
C    0.749866188950    0.624937281430    0.125203892530
C    0.749162722590    0.624804297670    0.375835111260
C    0.750618947670    0.625479931390    0.625482869050
C    0.750244967180    0.625195968230    0.875320932710
C    0.749947525170    0.874930459960    0.125193902710
C    0.749905211990    0.874901157830    0.375149654910
C    0.750244884750    0.875318376340    0.625198344500
C    0.750119724150    0.875174708520    0.875177101060
C    0.124977159650   -0.000044357500    0.124982152950
C    0.124954113770   -0.000074984270    0.374976418850
C    0.125068743410   -0.000087426590    0.624982764520
C    0.125046688690   -0.000025786180    0.874962826300
C    0.124945969740    0.249969090850    0.124957706850
C    0.124881297010    0.249957625500    0.374950614770
C    0.124886882700    0.249924262780    0.624951736630
C    0.124972251690    0.249995690990    0.874930892310
C    0.124797331720    0.499985181480    0.124803035290
C    0.124981926250    0.499931927720    0.374959393360
C    0.125129528500    0.499924024130    0.624876423230
C    0.124995746000    0.499957834900    0.874993211960
C    0.124994225070    0.749949991080    0.124994389980
C    0.124972444140    0.749953388270    0.374978994220
C    0.125218747280    0.749851807440    0.624922810390
C    0.125196739340    0.749940577090    0.874918052270
C    0.374970048490   -0.000071659560    0.124958462700
C    0.374994454880   -0.000132008290    0.374998161430
C    0.375044292430   -0.000065477690    0.624958658890
C    0.375024539620   -0.000044256600    0.874953873050
C    0.374935575170    0.249951796320    0.124882953960
C    0.375008423260    0.250043354140    0.375031669380
C    0.374879679520    0.249916034790    0.624865113550
C    0.374971701420    0.249969649090    0.874938946370
C    0.374949656130    0.499934029450    0.124963835910
C    0.375148047970    0.500327897620    0.375089725490
C    0.376047388770    0.499124636200    0.623598544350
C    0.375164642800    0.499986919530    0.874754600060
C    0.374977837660    0.749966422170    0.124953653740
C    0.375010920230    0.749838361040    0.374982207720
C    0.375844903610    0.749162945860    0.624774444010
C    0.375150993910    0.749896328250    0.874885932660
C    0.624980232210   -0.000072606940    0.125075059800
C    0.624954394830   -0.000051302830    0.375048811170
C    0.625017954940    0.000115106530    0.625021822310
C    0.625036080240    0.000151008450    0.875057741230
C    0.624938763080    0.249935340310    0.124898485480
C    0.624819246310    0.249950040140    0.374894357230
C    0.624579318600    0.250489305300    0.624610732670
C    0.624939821820    0.250309778810    0.874733941700
C    0.624878816250    0.499939664320    0.125109693450
C    0.623580473070    0.499265539380    0.375969826160
C    0.624863997740    0.502987974130    0.624897822610
C    0.625042278440    0.500139278990    0.874993080720
C    0.624931288010    0.749876464020    0.125195230110
C    0.624787071270    0.749193276650    0.375826297520
C    0.625477696550    0.750626265370    0.625477605020
C    0.625197260310    0.750242510530    0.875318042690
C    0.874960860300   -0.000017110410    0.125051633970
C    0.874946859370   -0.000027696100    0.375031331620
C    0.875052399430    0.000154261460    0.625038477710
C    0.875035277250    0.000118287670    0.875037683140
C    0.874921699610    0.250003893030    0.124984543660
C    0.874909443720    0.249995687940    0.374986418340
C    0.874711612980    0.250319546950    0.624947332030
C    0.874911273380    0.250108811270    0.874919534940
C    0.874979960340    0.499969023110    0.125011646600
C    0.874744451520    0.500001298130    0.375170319940
C    0.874982572390    0.500142052730    0.625044457750
C    0.875164649310    0.500113805020    0.875167339620
C    0.874924470520    0.749950702830    0.125194238360
C    0.874890860700    0.749906151780    0.375150851280
C    0.875320216390    0.750241719000    0.625196878200
C    0.875178252770    0.750116501370    0.875175408030
C    0.124977030420    0.124979440740   -0.000041637890
C    0.124946024540    0.124954889160    0.249971745680
C    0.124797185650    0.124799772780    0.499988173870
C    0.124993959090    0.124991100190    0.749952880300
C    0.124953953590    0.374973649100   -0.000071965570
C    0.124881283330    0.374947713860    0.249960590000
C    0.124981955910    0.374956283020    0.499935051710
C    0.124972195980    0.374975753450    0.749956662400
C    0.125068874030    0.624979965090   -0.000084013190
C    0.124887129480    0.624948574850    0.249927633680
C    0.125129491350    0.624873163100    0.499927268480
C    0.125218751140    0.624919636500    0.749855173040
C    0.125046804370    0.874960123770   -0.000022819490
C    0.124972545910    0.874927893360    0.249998705310
C    0.124995919510    0.874989905340    0.499960866120
C    0.125196707830    0.874914745110    0.749943487560
C    0.374969898970    0.124955172590   -0.000068424510
C    0.374935602960    0.124880069380    0.249954652320
C    0.374949442990    0.124960608080    0.499937271100
C    0.374977520750    0.124949752520    0.749970010770
C    0.374994400080    0.374995265410   -0.000129056120
C    0.375008465790    0.375028228770    0.250046751260
C    0.375147920650    0.375086387720    0.500331230330
C    0.375010718550    0.374978767080    0.749841673530
C    0.375044480910    0.624955616630   -0.000062004460
C    0.374879946630    0.624861605550    0.249919557620
C    0.376047476360    0.623595336970    0.499127916070
C    0.375844917160    0.624771123480    0.749166288690
C    0.375024680860    0.874950585940   -0.000040579800
C    0.374971984640    0.874935425030    0.249973268720
C    0.375164673440    0.874751447300    0.499990064670
C    0.375150952910    0.874882358960    0.749899544500
C    0.624980198480    0.125072531260   -0.000070074330
C    0.624938807350    0.124895956900    0.249937829520
C    0.624878719970    0.125106914820    0.499942414840
C    0.624931100910    0.125192204480    0.749879382110
C    0.624954355750    0.375046321630   -0.000048769190
C    0.624819278280    0.374891425200    0.249952987770
C    0.623580250410    0.375966642110    0.499268789500
C    0.624786923200    0.375823324890    0.749196185620
C    0.625018051970    0.625019284400    0.000117807590
C    0.624579440280    0.624607378910    0.250492674860
C    0.624864118510    0.624894842390    0.502990962470
C    0.625477743370    0.625474674800    0.750629311100
C    0.625036115680    0.875055074950    0.000153758190
C    0.624939906450    0.874731274710    0.250312534160
C    0.625042270150    0.874990411700    0.500141913410
C    0.625197229300    0.875315385530    0.750245042210
C    0.874960835510    0.125049317180   -0.000014758920
C    0.874921741330    0.124982187340    0.250006167560
C    0.874980086750    0.125008947890    0.499971444350
C    0.874924524180    0.125191520750    0.749953218640
C    0.874946805070    0.375029064040   -0.000025201210
C    0.874909407970    0.374983882830    0.249998308180
C    0.874744499240    0.375167292650    0.500004217570
C    0.874891030480    0.375148077810    0.749908904640
C    0.875052435870    0.625036177480    0.000156851050
C    0.874711399560    0.624944494440    0.250322592810
C    0.874982518620    0.625041670540    0.500144881340
C    0.875320260900    0.625194392580    0.750244285780
C    0.875035297120    0.875035339860    0.000120716990
C    0.874911243880    0.874916965830    0.250111307700
C    0.875164591630    0.875164790780    0.500116155060
C    0.875178218540    0.875172954930    0.750118820490
C    0.187460247260    0.062447298580    0.187468788600
C    0.187436107170    0.062369873110    0.437462417400
C    0.187517030660    0.062417171240    0.687461391880
C    0.187510973020    0.062471780230    0.937452947300
C    0.187431589250    0.312447259440    0.187441269190
C    0.187383228310    0.312369019020    0.437398615980
C    0.187440342670    0.312479355260    0.687404306090
C    0.187469051630    0.312479723030    0.937430388970
C    0.187174546420    0.562386904840    0.187173831800
C    0.187593294780    0.562339026080    0.437438332240
C    0.187738233070    0.562391101810    0.687323862760
C    0.187631696140    0.562457617530    0.937338949660
C    0.187499412460    0.812420991490    0.187498853620
C    0.187421274420    0.812537994030    0.437516904870
C    0.187772722000    0.812307648970    0.687394100810
C    0.187599925740    0.812444026090    0.937433584000
C    0.437453591960    0.062377331350    0.187445786020
C    0.437456062550    0.062432009850    0.437465912420
C    0.437512172540    0.062515853080    0.687446359870
C    0.437512509040    0.062453354910    0.937485990230
C    0.437375383010    0.312372983730    0.187373117090
C    0.437386153680    0.312672774660    0.437434461140
C    0.437657256970    0.312135020010    0.687752843730
C    0.437497342820    0.312540847210    0.937345393820
C    0.437434106520    0.562355105620    0.187553997260
C    0.438742217630    0.561896525320    0.686213314400
C    0.437565825120    0.562503490980    0.937415352890
C    0.437520325070    0.812566689620    0.187392017720
C    0.437586479340    0.812215474160    0.437575217710
C    0.437792897570    0.812351499020    0.687487557290
C    0.437582251780    0.812477660710    0.937496043430
C    0.687455103080    0.062435613030    0.187527192710
C    0.687434362160    0.062531486730    0.437522112940
C    0.687490943900    0.062667070530    0.687498786300
C    0.687492088280    0.062629335490    0.937497868020
C    0.687391120080    0.312492593530    0.187445869670
C    0.687644932630    0.312225432660    0.437651824030
C    0.687116901010    0.313004923680    0.687144431030
C    0.687446125210    0.312616331370    0.937399352480
C    0.687327607500    0.562422494690    0.187709922160
C    0.686202982780    0.561944486700    0.438742761000
C    0.688516144550    0.562959784640    0.688531232980
C    0.687564167900    0.562591472280    0.937609369330
C    0.687400370840    0.812329798080    0.187761917670
C    0.687496795260    0.812371783910    0.437785979450
C    0.687833898040    0.812962158620    0.687834257510
C    0.687617262760    0.812650911740    0.937747207450
C    0.937446816360    0.062480011250    0.187519135080
C    0.937466959360    0.062472663790    0.437518859530
C    0.937489963200    0.062628246630    0.687496026620
C    0.937502340960    0.062559654070    0.937507181520
C    0.937416108920    0.312488136680    0.187484626110
C    0.937329678250    0.312554050390    0.437508539640
C    0.937386453350    0.312620021960    0.687449922020
C    0.937438223580    0.312550538120    0.937447310120
C    0.937336111990    0.562464267890    0.187640944160
C    0.937414683100    0.562507975660    0.437571388230
C    0.937608650500    0.562589853580    0.687563073000
C    0.937603921980    0.562536972880    0.937605063440
C    0.937438269050    0.812451441960    0.187602202570
C    0.937501969900    0.812479605960    0.437585269060
C    0.937750808950    0.812645829480    0.687615876940
C    0.937610755480    0.812555026670    0.937609478160
C    0.062480559790    0.062484550170    0.062487095500
C    0.062445567360    0.062455111660    0.312490915970
C    0.062417683760    0.062420536200    0.562467224340
C    0.062526654400    0.062524228000    0.812474810170
C    0.062445451820    0.312488377710    0.062457894060
C    0.062361256300    0.312449188270    0.312451961350
C    0.062428497520    0.312501442980    0.562446335480
C    0.062452338880    0.312524020150    0.812444288890
C    0.062417813020    0.562464481540    0.062423748180
C    0.062428492150    0.562443477190    0.312504415780
C    0.062577144520    0.562469629520    0.562472674730
C    0.062619032630    0.562503341790    0.812462468020
C    0.062526837370    0.812472207820    0.062527127730
C    0.062452578570    0.812441349700    0.312526925230
C    0.062619071710    0.812459417650    0.562506173800
C    0.062696859820    0.812492899650    0.812495775350
C    0.312481921040    0.062451035080    0.062454177310
C    0.312438326780    0.062362979070    0.312447238780
C    0.312495693810    0.062415642040    0.562447850850
C    0.312521978390    0.062439725320    0.812448066060
C    0.312438276770    0.312444348640    0.062365916550
C    0.312464652000    0.312472494420    0.312475928330
C    0.311753468710    0.311722758720    0.562079981600
C    0.312514392000    0.312502579070    0.812425349050
C    0.312495915400    0.562444713820    0.062419073070
C    0.311753557660    0.562076475020    0.311726134010
C    0.313214227960    0.562002684440    0.562006009590
C    0.312917060730    0.562372190000    0.812044171820
C    0.312522312770    0.812444614020    0.062443677080
C    0.312514699280    0.812421738790    0.312506289820
C    0.312917099270    0.812040686410    0.562375532190
C    0.312674801730    0.812361759190    0.812365243020
C    0.562463037870    0.062430063890    0.062432695020
C    0.562438075800    0.062428580990    0.312505010250
C    0.562472457800    0.062559032400    0.562482749230
C    0.562507258380    0.062602004360    0.812478473450
C    0.562438044860    0.312502410570    0.062431185780
C    0.562061511600    0.311762988480    0.311766087450
C    0.562016208500    0.313099970800    0.562095768720
C    0.562383963750    0.312892451540    0.812072201820
C    0.562472628470    0.562479979000    0.062561874200
C    0.562016376050    0.562092358660    0.313103333990
C    0.562666208980    0.562656648530    0.812524245370
C    0.562507447360    0.812475493280    0.062605168660
C    0.562384161610    0.812069311640    0.312895405370
C    0.562666261640    0.812521350720    0.562659540150
C    0.562690152280    0.812870331140    0.812873051710
C    0.812470877120    0.062531189950    0.062533499960
C    0.812437065220    0.062461998340    0.312531755110
C    0.812464861810    0.062614989310    0.562514035350
C    0.812499415720    0.062691976350    0.812504647200
C    0.812437006040    0.312529488110    0.062464416500
C    0.812393164260    0.312525151430    0.312527772620
C    0.812036074330    0.312919821080    0.562399265160
C    0.812372806630    0.312670209400    0.812381864810
C    0.812464852970    0.562511669430    0.062617577590
C    0.812035989210    0.562396197050    0.312923012420
C    0.812511803500    0.562667639380    0.562670542210
C    0.812876788340    0.562688394400    0.812879591190
C    0.812499432290    0.812502243300    0.062694498300
C    0.812372678720    0.812379157240    0.312672884460
C    0.812876731610    0.812877020550    0.562690828330
C    0.812721247160    0.812717760150    0.812720134080
C    0.062439010360    0.187469499960    0.187472079610
C    0.062370069660    0.187446206200    0.437464580340
C    0.062425066080    0.187519166280    0.687461679910
C    0.062472775840    0.187513266410    0.937454752380
C    0.062370047290    0.437461858140    0.187449096470
C    0.062442488570    0.437463119550    0.437466047240
C    0.062536825510    0.437512962620    0.687436495200
C    0.062458327350    0.437513800100    0.937479193580
C    0.062425279040    0.687458856120    0.187522291430
C    0.062536844990    0.687433528390    0.437515916630
C    0.062682853020    0.687482222450    0.687485262130
C    0.062630872640    0.687489618630    0.937486789490
C    0.062472981480    0.937452063540    0.187515930790
C    0.062458505460    0.937476163400    0.437516524920
C    0.062630820880    0.937483639550    0.687492264000
C    0.062559105560    0.937500837320    0.937503467540
C    0.312437403810    0.187437792540    0.187440699890
C    0.312355589860    0.187362297840    0.437399567650
C    0.312481827820    0.187413396410    0.687413757980
C    0.312477665620    0.187466848310    0.937434613280
C    0.312355750930    0.437396212080    0.187365517950
C    0.312758280060    0.437428226100    0.437431589890
C    0.312227954780    0.437628978560    0.687689435990
C    0.312544918380    0.437496296220    0.937337821310
C    0.312482175640    0.687410076410    0.187417327960
C    0.312228021130    0.687686112210    0.437632426540
C    0.313030369300    0.687106417050    0.687109890030
C    0.312618444250    0.687441479040    0.937380923810
C    0.312478006710    0.937431168720    0.187470407830
C    0.312545021560    0.937334703260    0.437499340880
C    0.312618372730    0.937377218080    0.687444567380
C    0.312547305980    0.937434876900    0.937438251390
C    0.562379045990    0.187196568330    0.187199230180
C    0.562332021130    0.187562685250    0.437455582360
C    0.562400449050    0.187689875490    0.687362775880
C    0.562459775690    0.187625693510    0.937355438920
C    0.562332157550    0.437452575770    0.187565604140
C    0.561914678460    0.438696909110    0.686244266390
C    0.562506138020    0.437563330360    0.937422768690
C    0.562400822370    0.687359419800    0.187693290970
C    0.561914910250    0.686241339530    0.438699955370
C    0.562965790020    0.688508923490    0.688512046970
C    0.562591765510    0.687562742020    0.937603701570
C    0.562459917320    0.937352698790    0.187628498690
C    0.562506194420    0.937420104920    0.437565995140
C    0.562591706010    0.937600854980    0.687565380010
C    0.562537654880    0.937603393330    0.937606200140
C    0.812413553460    0.187507941430    0.187510257300
C    0.812516906580    0.187438730690    0.437526995090
C    0.812318919700    0.187763489950    0.687410131370
C    0.812447569600    0.187600924310    0.937447459300
C    0.812516779410    0.437524396690    0.187441541850
C    0.812193479430    0.437593797140    0.437596845860
C    0.812356565490    0.437791586570    0.687503822900
C    0.812480786280    0.437583244920    0.937508625790
C    0.812318773980    0.687407411780    0.187766398200
C    0.812356445940    0.687500930220    0.437794543820
C    0.812963362900    0.687832154020    0.687834749500
C    0.812651448220    0.687616571260    0.937748337950
C    0.812447595370    0.937445023810    0.187603304530
C    0.812480775230    0.937506141050    0.437585557680
C    0.812651390080    0.937745849080    0.687618867850
C    0.812556687450    0.937609795080    0.937612145430
C    0.187460113740    0.187465942670    0.062450268990
C    0.187431554140    0.187438291290    0.312450137310
C    0.187174418920    0.187170328470    0.562390281110
C    0.187499030050    0.187495330710    0.812424261230