&CONTROL
calculation = 'scf'
restart_mode = 'from_scratch'
prefix = 'pwscf'
pseudo_dir = './'
outdir = './'
tprnfor = .TRUE.
verbosity = 'high'
forc_conv_thr = 0.000039
/
&SYSTEM
ibrav = 0
nat = 511
ntyp = 2
ecutwfc = 80
tot_charge = -1
nspin = 2
tot_magnetization = 2
occupations = 'from_input'
nbnd = 1032
/
&ELECTRONS
electron_maxstep = 100
conv_thr = 1.0d-10
mixing_mode = 'plain'
mixing_beta = 0.7
diagonalization = 'david'
diago_full_acc = .TRUE.
startingpot = 'atomic'
startingwfc = 'atomic+random'
/
&IONS
ion_dynamics='bfgs'
ion_positions='default'
/
ATOMIC_SPECIES
C  12.011   C_ONCV_PBE-1.2.upf
N  14.0067  N_ONCV_PBE-1.2.upf
CELL_PARAMETERS angstrom
14.272  0.0000  0.0000
0.0000  14.272  0.0000
0.0000  0.0000  14.272
K_POINTS gamma
OCCUPATIONS
1 1 1 1 1 1 1 1 1 1
1 1 1 1 1 1 1 1 1 1
1 1 1 1 1 1 1 1 1 1
1 1 1 1 1 1 1 1 1 1
1 1 1 1 1 1 1 1 1 1
1 1 1 1 1 1 1 1 1 1
1 1 1 1 1 1 1 1 1 1
1 1 1 1 1 1 1 1 1 1
1 1 1 1 1 1 1 1 1 1
1 1 1 1 1 1 1 1 1 1
1 1 1 1 1 1 1 1 1 1
1 1 1 1 1 1 1 1 1 1
1 1 1 1 1 1 1 1 1 1
1 1 1 1 1 1 1 1 1 1
1 1 1 1 1 1 1 1 1 1
1 1 1 1 1 1 1 1 1 1
1 1 1 1 1 1 1 1 1 1
1 1 1 1 1 1 1 1 1 1
1 1 1 1 1 1 1 1 1 1
1 1 1 1 1 1 1 1 1 1
1 1 1 1 1 1 1 1 1 1
1 1 1 1 1 1 1 1 1 1
1 1 1 1 1 1 1 1 1 1
1 1 1 1 1 1 1 1 1 1
1 1 1 1 1 1 1 1 1 1
1 1 1 1 1 1 1 1 1 1
1 1 1 1 1 1 1 1 1 1
1 1 1 1 1 1 1 1 1 1
1 1 1 1 1 1 1 1 1 1
1 1 1 1 1 1 1 1 1 1
1 1 1 1 1 1 1 1 1 1
1 1 1 1 1 1 1 1 1 1
1 1 1 1 1 1 1 1 1 1
1 1 1 1 1 1 1 1 1 1
1 1 1 1 1 1 1 1 1 1
1 1 1 1 1 1 1 1 1 1
1 1 1 1 1 1 1 1 1 1
1 1 1 1 1 1 1 1 1 1
1 1 1 1 1 1 1 1 1 1
1 1 1 1 1 1 1 1 1 1
1 1 1 1 1 1 1 1 1 1
1 1 1 1 1 1 1 1 1 1
1 1 1 1 1 1 1 1 1 1
1 1 1 1 1 1 1 1 1 1
1 1 1 1 1 1 1 1 1 1
1 1 1 1 1 1 1 1 1 1
1 1 1 1 1 1 1 1 1 1
1 1 1 1 1 1 1 1 1 1
1 1 1 1 1 1 1 1 1 1
1 1 1 1 1 1 1 1 1 1
1 1 1 1 1 1 1 1 1 1
1 1 1 1 1 1 1 1 1 1
1 1 1 1 1 1 1 1 1 1
1 1 1 1 1 1 1 1 1 1
1 1 1 1 1 1 1 1 1 1
1 1 1 1 1 1 1 1 1 1
1 1 1 1 1 1 1 1 1 1
1 1 1 1 1 1 1 1 1 1
1 1 1 1 1 1 1 1 1 1
1 1 1 1 1 1 1 1 1 1
1 1 1 1 1 1 1 1 1 1
1 1 1 1 1 1 1 1 1 1
1 1 1 1 1 1 1 1 1 1
1 1 1 1 1 1 1 1 1 1
1 1 1 1 1 1 1 1 1 1
1 1 1 1 1 1 1 1 1 1
1 1 1 1 1 1 1 1 1 1
1 1 1 1 1 1 1 1 1 1
1 1 1 1 1 1 1 1 1 1
1 1 1 1 1 1 1 1 1 1
1 1 1 1 1 1 1 1 1 1
1 1 1 1 1 1 1 1 1 1
1 1 1 1 1 1 1 1 1 1
1 1 1 1 1 1 1 1 1 1
1 1 1 1 1 1 1 1 1 1
1 1 1 1 1 1 1 1 1 1
1 1 1 1 1 1 1 1 1 1
1 1 1 1 1 1 1 1 1 1
1 1 1 1 1 1 1 1 1 1
1 1 1 1 1 1 1 1 1 1
1 1 1 1 1 1 1 1 1 1
1 1 1 1 1 1 1 1 1 1
1 1 1 1 1 1 1 1 1 1
1 1 1 1 1 1 1 1 1 1
1 1 1 1 1 1 1 1 1 1
1 1 1 1 1 1 1 1 1 1
1 1 1 1 1 1 1 1 1 1
1 1 1 1 1 1 1 1 1 1
1 1 1 1 1 1 1 1 1 1
1 1 1 1 1 1 1 1 1 1
1 1 1 1 1 1 1 1 1 1
1 1 1 1 1 1 1 1 1 1
1 1 1 1 1 1 1 1 1 1
1 1 1 1 1 1 1 1 1 1
1 1 1 1 1 1 1 1 1 1
1 1 1 1 1 1 1 1 1 1
1 1 1 1 1 1 1 1 1 1
1 1 1 1 1 1 1 1 1 1
1 1 1 1 1 1 1 1 1 1
1 1 1 1 1 1 1 1 1 1
1 1 1 1 1 1 1 1 1 1
1 1 1 1 1 1 1 1 1 1
1 1 1 1 0 0 0 0 0 0
0 0
1 1 1 1 1 1 1 1 1 1
1 1 1 1 1 1 1 1 1 1
1 1 1 1 1 1 1 1 1 1
1 1 1 1 1 1 1 1 1 1
1 1 1 1 1 1 1 1 1 1
1 1 1 1 1 1 1 1 1 1
1 1 1 1 1 1 1 1 1 1
1 1 1 1 1 1 1 1 1 1
1 1 1 1 1 1 1 1 1 1
1 1 1 1 1 1 1 1 1 1
1 1 1 1 1 1 1 1 1 1
1 1 1 1 1 1 1 1 1 1
1 1 1 1 1 1 1 1 1 1
1 1 1 1 1 1 1 1 1 1
1 1 1 1 1 1 1 1 1 1
1 1 1 1 1 1 1 1 1 1
1 1 1 1 1 1 1 1 1 1
1 1 1 1 1 1 1 1 1 1
1 1 1 1 1 1 1 1 1 1
1 1 1 1 1 1 1 1 1 1
1 1 1 1 1 1 1 1 1 1
1 1 1 1 1 1 1 1 1 1
1 1 1 1 1 1 1 1 1 1
1 1 1 1 1 1 1 1 1 1
1 1 1 1 1 1 1 1 1 1
1 1 1 1 1 1 1 1 1 1
1 1 1 1 1 1 1 1 1 1
1 1 1 1 1 1 1 1 1 1
1 1 1 1 1 1 1 1 1 1
1 1 1 1 1 1 1 1 1 1
1 1 1 1 1 1 1 1 1 1
1 1 1 1 1 1 1 1 1 1
1 1 1 1 1 1 1 1 1 1
1 1 1 1 1 1 1 1 1 1
1 1 1 1 1 1 1 1 1 1
1 1 1 1 1 1 1 1 1 1
1 1 1 1 1 1 1 1 1 1
1 1 1 1 1 1 1 1 1 1
1 1 1 1 1 1 1 1 1 1
1 1 1 1 1 1 1 1 1 1
1 1 1 1 1 1 1 1 1 1
1 1 1 1 1 1 1 1 1 1
1 1 1 1 1 1 1 1 1 1
1 1 1 1 1 1 1 1 1 1
1 1 1 1 1 1 1 1 1 1
1 1 1 1 1 1 1 1 1 1
1 1 1 1 1 1 1 1 1 1
1 1 1 1 1 1 1 1 1 1
1 1 1 1 1 1 1 1 1 1
1 1 1 1 1 1 1 1 1 1
1 1 1 1 1 1 1 1 1 1
1 1 1 1 1 1 1 1 1 1
1 1 1 1 1 1 1 1 1 1
1 1 1 1 1 1 1 1 1 1
1 1 1 1 1 1 1 1 1 1
1 1 1 1 1 1 1 1 1 1
1 1 1 1 1 1 1 1 1 1
1 1 1 1 1 1 1 1 1 1
1 1 1 1 1 1 1 1 1 1
1 1 1 1 1 1 1 1 1 1
1 1 1 1 1 1 1 1 1 1
1 1 1 1 1 1 1 1 1 1
1 1 1 1 1 1 1 1 1 1
1 1 1 1 1 1 1 1 1 1
1 1 1 1 1 1 1 1 1 1
1 1 1 1 1 1 1 1 1 1
1 1 1 1 1 1 1 1 1 1
1 1 1 1 1 1 1 1 1 1
1 1 1 1 1 1 1 1 1 1
1 1 1 1 1 1 1 1 1 1
1 1 1 1 1 1 1 1 1 1
1 1 1 1 1 1 1 1 1 1
1 1 1 1 1 1 1 1 1 1
1 1 1 1 1 1 1 1 1 1
1 1 1 1 1 1 1 1 1 1
1 1 1 1 1 1 1 1 1 1
1 1 1 1 1 1 1 1 1 1
1 1 1 1 1 1 1 1 1 1
1 1 1 1 1 1 1 1 1 1
1 1 1 1 1 1 1 1 1 1
1 1 1 1 1 1 1 1 1 1
1 1 1 1 1 1 1 1 1 1
1 1 1 1 1 1 1 1 1 1
1 1 1 1 1 1 1 1 1 1
1 1 1 1 1 1 1 1 1 1
1 1 1 1 1 1 1 1 1 1
1 1 1 1 1 1 1 1 1 1
1 1 1 1 1 1 1 1 1 1
1 1 1 1 1 1 1 1 1 1
1 1 1 1 1 1 1 1 1 1
1 1 1 1 1 1 1 1 1 1
1 1 1 1 1 1 1 1 1 1
1 1 1 1 1 1 1 1 1 1
1 1 1 1 1 1 1 1 1 1
1 1 1 1 1 1 1 1 1 1
1 1 1 1 1 1 1 1 1 1
1 1 1 1 1 1 1 1 1 1
1 1 1 1 1 1 1 1 1 1
1 1 1 1 1 1 1 1 1 1
1 1 1 1 1 1 1 1 1 1
1 1 1 1 1 1 1 1 1 1
1 1 1 1 1 1 1 1 1 1
1 0 1 0 0 0 0 0 0 0
0 0
ATOMIC_POSITIONS crystal
C   -0.000024134120   -0.000017139160    0.000002226480
C   -0.000051314520    0.000002072840    0.250013781460
C   -0.000107516780   -0.000038188940    0.500007770960
C   -0.000002411520   -0.000038704960    0.749994739120
C   -0.000052161360    0.249994618940    0.000022620160
C   -0.000011756240    0.250017824160    0.250037873000
C   -0.000062071400    0.250040873400    0.500037200700
C   -0.000114135920    0.249979785160    0.750016980760
C   -0.000107598620    0.499988173840   -0.000015169500
C   -0.000062496640    0.500016187260    0.250063266040
C    0.000023474300    0.499988433580    0.500010778740
C    0.000019448140    0.499964302300    0.749957533000
C   -0.000001970400    0.749975346720   -0.000016441880
C   -0.000113454560    0.749995202680    0.250002270880
C    0.000019413020    0.749935349480    0.499985502940
C    0.000106290400    0.749943139820    0.749964648780
C    0.249961938940   -0.000047538920   -0.000022992280
C    0.249920946960    0.000057528760    0.249965611200
C    0.249979388080   -0.000077638160    0.499998361540
C    0.249972505240   -0.000190168320    0.749997472880
C    0.249919108280    0.249940755520    0.000083224400
C    0.250095257860    0.250160803340    0.250185531660
C    0.249557930440    0.249485717520    0.500251590000
C    0.249937003560    0.249856188280    0.750094605040
C    0.249979773480    0.499975183740   -0.000051922440
C    0.249558103880    0.500224169520    0.249512225920
C    0.250760134480    0.499894792840    0.499923183160
C    0.249711171140    0.499650796000    0.750351301800
C    0.249974139800    0.749972355840   -0.000159345840
C    0.249940082280    0.750065144080    0.249887169600
C    0.249710928140    0.750323630960    0.499678273600
C    0.250304991300    0.749658770860    0.749687281460
C    0.499963297920   -0.000042622260   -0.000018240340
C    0.499963388300    0.000010292800    0.250005839120
C    0.499978469860   -0.000028591260    0.500011403580
C    0.499986383900   -0.000087751940    0.750013092560
C    0.499962715860    0.249983622600    0.000032719680
C    0.499943939200    0.249727285240    0.249751109400
C    0.499880309640    0.250220585200    0.500095182040
C    0.499756797320    0.249240296620    0.750756746960
C    0.499979061740    0.499989711420   -0.000005904740
C    0.499881612920    0.500067563320    0.250247827280
C    0.500035465260    0.499884131060    0.749742695840
C    0.499987636100    0.749989458280   -0.000061244660
C    0.499758945320    0.750732260000    0.249265339220
C    0.500036469300    0.749717932440    0.499909372140
C    0.500119402540    0.750060583280    0.750084657400
C    0.749983270280    0.000007928120    0.000027060120
C    0.749968289680   -0.000029762320    0.250027429560
C    0.749968932760    0.000006712500    0.500023747860
C    0.750005557180    0.000032842880    0.750028826660
C    0.749967972880    0.250008914320   -0.000010507160
C    0.749943980800    0.250005153760    0.250024867480
C    0.750114843960    0.249776062620    0.499995749360
C    0.749778349500    0.250185876860    0.749882947340
C    0.749969015240    0.500005149260    0.000026731380
C    0.750114258200    0.499971846080    0.249801177060
C    0.749565485440    0.500052182140    0.500077669780
C    0.750126295200    0.500091917980    0.750218202440
C    0.750005924580    0.750009739500    0.000053075560
C    0.749776738420    0.749859350380    0.250210055060
C    0.750125543920    0.750195791960    0.500114116180
C    0.750109249520    0.750093793800    0.750113782960
C   -0.000029995200    0.125005331260    0.125024471740
C   -0.000038920380    0.125012226500    0.375020228200
C   -0.000116838500    0.124994541180    0.625029799640
C   -0.000052764960    0.124980683720    0.875006633520
C   -0.000039575300    0.375000861480    0.125033426860
C   -0.000024609780    0.375040218380    0.375061984220
C   -0.000029615820    0.375002014220    0.624997206720
C   -0.000096944040    0.374974968500    0.875003700000
C   -0.000116398180    0.625009168520    0.125018136700
C   -0.000029899260    0.624975324280    0.375024346740
C    0.000083327760    0.624935037160    0.624957343760
C    0.000046885020    0.624973204060    0.874957707980
C   -0.000051927800    0.874986614520    0.125001394760
C   -0.000095990840    0.874981530720    0.374995486580
C    0.000046595860    0.874934997420    0.624993111020
C    0.000040202600    0.874958387540    0.874978611620
C    0.249957690540    0.125036171100    0.125059692220
C    0.249992533540    0.125000919180    0.375060666340
C    0.249854034740    0.124767804060    0.625092153680
C    0.249937553340    0.124885013500    0.875048348060
C    0.249992945260    0.375037046740    0.125024818660
C    0.250536847820    0.375358464040    0.375385292720
C    0.249980662180    0.374794402420    0.625117544880
C    0.249861421240    0.374867295400    0.875157019240
C    0.249856678060    0.625064538200    0.124798702700
C    0.249982248500    0.625087539640    0.374824741620
C    0.250767251660    0.624421966000    0.624449495880
C    0.250213076440    0.624879231240    0.874751171040
C    0.249940174860    0.875022151540    0.124913597460
C    0.249863780800    0.875128508560    0.374894984400
C    0.250213243520    0.874721896960    0.624904744320
C    0.250026064660    0.874846958320    0.874873756400
C    0.499973773620    0.124902647560    0.124924313200
C    0.499958063180    0.125024885600    0.375053571280
C    0.499922117640    0.124945345780    0.625045051820
C    0.499911389280    0.124696440960    0.875279958360
C    0.499958437900    0.375031092440    0.125047571320
C    0.499979540660    0.375416634160    0.375444185720
C    0.498610226340    0.374793110840    0.625066312260
C    0.499957575320    0.374990191680    0.874982169380
C    0.499924936640    0.625018885940    0.124972611860
C    0.498611631980    0.625041384260    0.374818469720
C    0.502022388640    0.624231257120    0.624255913320
C    0.500049383400    0.624931290160    0.874941557280
C    0.499912868720    0.875254694160    0.124722830960
C    0.499958830000    0.874958775700    0.375014142120
C    0.500049120400    0.874917522080    0.624953961280
C    0.500023798680    0.874982125980    0.875005986780
C    0.749973071180    0.124998888920    0.125017288480
C    0.749993512840    0.124953178480    0.375016303140
C    0.749888679000    0.125044468840    0.625008176960
C    0.749944344420    0.125058211440    0.874974433380
C    0.749993023720    0.374997084940    0.124973541640
C    0.749970428860    0.374966697280    0.374990047400
C    0.749205734140    0.375579907300    0.624905735560
C    0.749902192220    0.375034404520    0.874957550660
C    0.749888669800    0.624987216840    0.125066651440
C    0.749206595020    0.624880995760    0.375604941180
C    0.750250917560    0.625200721620    0.625224110900
C    0.750079855940    0.625050442640    0.875122995180
C    0.749944273460    0.874954253380    0.125078648480
C    0.749901772820    0.874936934340    0.375054546680
C    0.750079203500    0.875102593220    0.625069368800
C    0.750035051800    0.875031429860    0.875050486180
C    0.124955096700    0.000006776800    0.124994980100
C    0.124910885060    0.000016125140    0.374990360400
C    0.124975408980   -0.000139692020    0.625007608360
C    0.124984873720   -0.000082623240    0.874980030200
C    0.124986066020    0.250023724100    0.125079906900
C    0.125036909180    0.250091441700    0.375081135860
C    0.124870905900    0.249867913340    0.625070976240
C    0.124920731620    0.249939443820    0.875038741380
C    0.124771758760    0.500050272940    0.124817345320
C    0.125140452800    0.500032219660    0.375046650880
C    0.125206387100    0.499876056840    0.624898783540
C    0.124844215600    0.499896563200    0.875114752680
C    0.124936488160    0.750003274940    0.124937779440
C    0.124902698520    0.750057191760    0.374924859860
C    0.125185615440    0.749773568720    0.624871420520
C    0.125101383520    0.749888744820    0.874854991860
C    0.374939404520    0.000042778820    0.124945655500
C    0.374969471740   -0.000007544020    0.374999180140
C    0.374988679740   -0.000117095620    0.625001022120
C    0.374963871460   -0.000156559000    0.875005691600
C    0.374960826060    0.250044815260    0.125050136780
C    0.375158342680    0.250243110620    0.375344388640
C    0.374882315860    0.249620114620    0.625291309600
C    0.374903387160    0.249767446320    0.875231711360
C    0.374968683040    0.500049019500    0.124995737080
C    0.375849328760    0.501084641860    0.375382874920
C    0.376136792560    0.498458008700    0.624194031900
C    0.375075831000    0.499893338840    0.874896317580
C    0.374915537380    0.750161483960    0.124752368320
C    0.374900095040    0.750315808220    0.374670499960
C    0.375683230980    0.749208332180    0.624642047480
C    0.375065202680    0.749830744900    0.874815181980
C    0.624987272880   -0.000021078820    0.125025877100
C    0.624966832640   -0.000003675740    0.375024871660
C    0.624985242120   -0.000006231960    0.625016244080
C    0.625002659020   -0.000011155300    0.875027401340
C    0.624967131840    0.249956554580    0.124963742140
C    0.624924336680    0.249892143420    0.374999821540
C    0.624587403600    0.250243595500    0.624838744160
C    0.624954582160    0.250122331480    0.874935192400
C    0.624917878700    0.500001143360    0.125047706700
C    0.624049475660    0.499585157140    0.375516417680
C    0.624267427920    0.502026702840    0.624538026880
C    0.624981233120    0.500009570320    0.875006396960
C    0.624939178480    0.749970835360    0.124997408080
C    0.624743051560    0.749450978500    0.375534466260
C    0.625182681900    0.750309494160    0.625181991660
C    0.625060632280    0.750060237740    0.875099868020
C    0.874964309200   -0.000013189080    0.125024323960
C    0.874949603160   -0.000024089000    0.375018200460
C    0.874984729940    0.000014819780    0.625021880780
C    0.874991524100    0.000015943960    0.875010694220
C    0.874965185780    0.250005067140    0.125019011380
C    0.874995746160    0.249975743120    0.375021143520
C    0.874756583640    0.250200476600    0.625014733840
C    0.874906997640    0.250022851060    0.874973062120
C    0.875008802720    0.499986033880    0.124971392400
C    0.874815227260    0.500008346640    0.375121332120
C    0.874922400320    0.500031739240    0.624998688600
C    0.875021290780    0.500021350560    0.875042771260
C    0.874906386860    0.749969750740    0.125081298680
C    0.874854655300    0.749909291140    0.375064103640
C    0.875117376620    0.750053891500    0.625057659400
C    0.875059776860    0.750009283560    0.875036934940
C    0.124954034860    0.124973324420    0.000028568680
C    0.124986525420    0.125057393380    0.250044871740
C    0.124770541200    0.124791147240    0.500074058060
C    0.124934318320    0.124911370120    0.750026458700
C    0.124909575620    0.374968377400    0.000040351740
C    0.125036841740    0.375058054580    0.250115122700
C    0.125140641080    0.375021740160    0.500057169580
C    0.124900601240    0.374898982700    0.750083447800
C    0.124976446940    0.624985282920   -0.000112286820
C    0.124872999140    0.625045682000    0.249894915540
C    0.125206166900    0.624872681500    0.499901948640
C    0.125185576320    0.624846092400    0.749800521520
C    0.124985778160    0.874958346960   -0.000058868720
C    0.124923127380    0.875014686780    0.249963523380
C    0.124845680680    0.875088215720    0.499920665960
C    0.125101180440    0.874828506580    0.749912014580
C    0.374938271360    0.124919320620    0.000068694220
C    0.374960985380    0.125027053140    0.250067586260
C    0.374966914920    0.124969704440    0.500074896700
C    0.374913030100    0.124720990560    0.750190234760
C    0.374969075340    0.374976088980    0.000016192340
C    0.375158759920    0.375316926760    0.250270385580
C    0.375848310200    0.375356116760    0.501111464540
C    0.374898418600    0.374642974840    0.750342399140
C    0.374990152580    0.624976754040   -0.000089092780
C    0.374884487740    0.625263217600    0.249648479260
C    0.376137521280    0.624168330860    0.498484240660
C    0.375683311380    0.624615609240    0.749235046820
C    0.374964980380    0.874979352720   -0.000127088600
C    0.374905589920    0.875203470640    0.249796403360
C    0.375076146120    0.874870997500    0.499918387960
C    0.375064902680    0.874786543380    0.749856439900
C    0.624987066040    0.125005655780   -0.000000796940
C    0.624967423000    0.124943443500    0.249976433260
C    0.624917087460    0.125025337660    0.500023126520
C    0.624937751680    0.124973105040    0.749994236080
C    0.624966604000    0.375004962340    0.000016733380
C    0.624924627440    0.374976379300    0.249915815460
C    0.624047659380    0.375490924280    0.499611088100
C    0.624741902000    0.375510706220    0.749474264260
C    0.624986018360    0.624995968800    0.000015446520
C    0.624588342040    0.624811858080    0.250270719980
C    0.624268415080    0.624514374120    0.502050427560
C    0.625183077460    0.625158682900    0.750333741000
C    0.625002893540    0.875006106100    0.000010828620
C    0.624955175200    0.874913800480    0.250144402280
C    0.624981145800    0.874985016800    0.500030589680
C    0.625060412200    0.875078673740    0.750080414180
C    0.874964110880    0.125005880640    0.000005573840
C    0.874965519540    0.125000167820    0.250023165380
C    0.875009779000    0.124949781720    0.500005319800
C    0.874906844140    0.125059592800    0.749989905220
C    0.874949168760    0.375000171820   -0.000004122880
C    0.874995488160    0.375000929440    0.249996677040
C    0.874815595020    0.375097176800    0.500031618160
C    0.874855985540    0.375041992880    0.749931335020
C    0.874985028460    0.625003506940    0.000035550500
C    0.874754897280    0.624992012120    0.250224815480
C    0.874921998160    0.624976439920    0.500054277120
C    0.875117725700    0.625037837440    0.750074390740
C    0.874991655060    0.874992010980    0.000035280520
C    0.874906754640    0.874952460240    0.250042724500
C    0.875020843340    0.875022345540    0.500040066880
C    0.875059517020    0.875017387140    0.750027780520
C    0.187449051180    0.062546266540    0.187517353900
C    0.187419748660    0.062443262580    0.437520451600
C    0.187430823280    0.062322728920    0.687527078340
C    0.187455931460    0.062434033640    0.937510476800
C    0.187522522400    0.312554167220    0.187599954920
C    0.187636234980    0.312529412960    0.437609319340
C    0.187405406860    0.312390685980    0.687568561720
C    0.187398036840    0.312434738440    0.937597916960
C    0.187144725160    0.562494656820    0.187139015200
C    0.187769486740    0.562438916640    0.437461879820
C    0.187791128360    0.562288262080    0.687332231680
C    0.187527923520    0.562434100540    0.937392815780
C    0.187436574580    0.812521724920    0.187432096860
C    0.187218156960    0.812771359540    0.437471992660
C    0.187691363100    0.812245517460    0.687349645280
C    0.187511170920    0.812419526720    0.937376570400
C    0.437449834080    0.062502991500    0.187497165460
C    0.437446983900    0.062481595400    0.437525831860
C    0.437457727520    0.062377647040    0.687550817860
C    0.437480786720    0.062317743980    0.937619110140
C    0.437423385580    0.312561137640    0.187555401220
C    0.437587800440    0.312851313580    0.437974393120
C    0.437709744160    0.311206487580    0.688830248240
C    0.437452142560    0.312435485380    0.937546388460
C    0.437427997060    0.562567552960    0.187455169580
C    0.438422424240    0.561578418160    0.686437242300
C    0.437493987060    0.562454404040    0.937448439020
C    0.437499312260    0.813000966260    0.186984075360
C    0.437480261620    0.812469240680    0.437390196580
C    0.437637152960    0.812249598060    0.687335530520
C    0.437507644240    0.812428117580    0.937393700140
C    0.687476690940    0.062470319240    0.187512084680
C    0.687454759180    0.062502737240    0.437537292720
C    0.687476968400    0.062494816840    0.687539784600
C    0.687476357740    0.062521416420    0.937503560560
C    0.687463024640    0.312496592140    0.187449622860
C    0.687966966440    0.311929760780    0.437666371640
C    0.687099324080    0.312765686640    0.687319571240
C    0.687458135180    0.312514761160    0.937496001340
C    0.687362203600    0.562539356120    0.187564683080
C    0.686354652340    0.561962109200    0.438426841200
C    0.687955462400    0.562752855820    0.688076127840
C    0.687500292200    0.562507376240    0.937537409540
C    0.687399756520    0.812422731340    0.187604921460
C    0.687409455280    0.812411856180    0.437581927000
C    0.687634696520    0.812691113860    0.687637572280
C    0.687534245980    0.812540181820    0.937565479400
C    0.937461457280    0.062499874800    0.187521129940
C    0.937466898180    0.062472187020    0.437531597640
C    0.937440392000    0.062512691540    0.687507934460
C    0.937472053780    0.062497873960    0.937510736260
C    0.937483718560    0.312501991640    0.187522576680
C    0.937420719900    0.312541124820    0.437541696120
C    0.937392878300    0.312544320880    0.687488516660
C    0.937423326040    0.312501813360    0.937495927360
C    0.937370170420    0.562487268420    0.187601886680
C    0.937443150700    0.562490253480    0.437538582940
C    0.937531735900    0.562494426640    0.687491540000
C    0.937491344340    0.562493400540    0.937500378020
C    0.937414120800    0.812478825680    0.187529378560
C    0.937441202900    0.812443630580    0.437531873480
C    0.937594368400    0.812499516740    0.687523229420
C    0.937525423940    0.812490982060    0.937515149380
C    0.062460842820    0.062492723860    0.062513079500
C    0.062456383480    0.062532625880    0.312519533160
C    0.062345365080    0.062368093600    0.562500581020
C    0.062465981200    0.062446500000    0.812504771360
C    0.062455431160    0.312499332080    0.062554913080
C    0.062489423500    0.312524498260    0.312546542900
C    0.062501481760    0.312495293340    0.562515349740
C    0.062393596840    0.312459261400    0.812526140520
C    0.062346434160    0.562478652620    0.062393831440
C    0.062501501800    0.562492483420    0.312519026740
C    0.062625729560    0.562436794760    0.562461058440
C    0.062546892940    0.562442273020    0.812441088060
C    0.062467472960    0.812483805560    0.062469725840
C    0.062395584360    0.812502480000    0.312482495040
C    0.062547247580    0.812416678100    0.562464873100
C    0.062585483660    0.812411800100    0.812434777700
C    0.312447650720    0.062500083240    0.062525221080
C    0.312437550340    0.062503114660    0.312508867340
C    0.312449215980    0.062398441920    0.562527486700
C    0.312442843320    0.062292597360    0.812556336880
C    0.312437108260    0.312485809220    0.062526677500
C    0.312675852500    0.312738696860    0.312766140140
C    0.311843994880    0.311598300960    0.562445906600
C    0.312405034500    0.312310636060    0.812771934100
C    0.312451002700    0.562502418460    0.062426100160
C    0.311844741480    0.562417867960    0.311625443280
C    0.313721616380    0.561789093720    0.561815596920
C    0.312750872540    0.562242664100    0.812185287760
C    0.312445560360    0.812528643560    0.062324302440
C    0.312407583740    0.812742905020    0.312340315060
C    0.312751180860    0.812157390480    0.562269268620
C    0.312585956540    0.812280053020    0.812307881660
C    0.562467033260    0.062444350120    0.062465392160
C    0.562449181300    0.062501988520    0.312523754500
C    0.562459232000    0.062480601600    0.562541661440
C    0.562473465740    0.062410547780    0.812569124500
C    0.562448975780    0.312503027060    0.062522980840
C    0.562298076600    0.311920146040    0.311945014800
C    0.561897272200    0.312807510100    0.562533823960
C    0.562336735100    0.312554048020    0.812409562760
C    0.562460625360    0.562519576600    0.062503532000
C    0.561898500600    0.562506487480    0.312834597620
C    0.562523255540    0.562446918940    0.812523986860
C    0.562474970580    0.812545332140    0.062435932180
C    0.562338261980    0.812386413320    0.312577671660
C    0.562523648820    0.812500822660    0.562469918900
C    0.562568608340    0.812567804720    0.812589506280
C    0.812473257960    0.062502223600    0.062520633680
C    0.812468302160    0.062470816520    0.312521008080
C    0.812460259380    0.062514434380    0.562527751500
C    0.812463921660    0.062546387900    0.812505759500
C    0.812467856720    0.312502984080    0.062490119800
C    0.812514448780    0.312491186940    0.312512072460
C    0.812120584840    0.312773018340    0.562459167380
C    0.812368453540    0.312549329900    0.812440869980
C    0.812460202660    0.562508866140    0.062535182620
C    0.812119861880    0.562434685500    0.312798542060
C    0.812424549900    0.562534824740    0.562557998380
C    0.812619497320    0.562554727300    0.812641843120
C    0.812464033220    0.812486556300    0.062566535500
C    0.812367416260    0.812419195420    0.312570667380
C    0.812619015480    0.812621299000    0.562574128740
C    0.812581012380    0.812553151300    0.812572079740
C    0.062480002780    0.187523023780    0.187543625980
C    0.062444988980    0.187500519900    0.437537720120
C    0.062385978640    0.187447936240    0.687529410580
C    0.062442026520    0.187474292580    0.937524896440
C    0.062444810020    0.437516033520    0.187523586060
C    0.062565649160    0.437503558900    0.437526903420
C    0.062545601480    0.437464237160    0.687471872500
C    0.062357586500    0.437491234200    0.937564694940
C    0.062387759320    0.687506694260    0.187472958440
C    0.062545820320    0.687448110020    0.437487778240
C    0.062621237760    0.687407343800    0.687431563240
C    0.062533769620    0.687456670540    0.937414946320
C    0.062443741640    0.937503294720    0.187495565620
C    0.062359053380    0.937540397500    0.437512983760
C    0.062533348540    0.937389739800    0.687477847500
C    0.062493527880    0.937459975660    0.937481059420
C    0.312475231180    0.187572183720    0.187595414520
C    0.312421944680    0.187468714220    0.437616960700
C    0.312410361460    0.187189773780    0.687644225840
C    0.312418195160    0.187380431280    0.937631732440
C    0.312423170240    0.437590144140    0.187494622100
C    0.313535412780    0.437924477800    0.437951367120
C    0.311949979740    0.437483565880    0.688322944320
C    0.312467970740    0.437443895760    0.937485829380
C    0.312413249020    0.687614661280    0.187221415180
C    0.311950545540    0.688296298080    0.437511079720
C    0.312969181600    0.687015522400    0.687043194240
C    0.312531594200    0.687420986820    0.937348592980
C    0.312420965880    0.937604070960    0.187408942440
C    0.312468859180    0.937460695980    0.437468141040
C    0.312531001040    0.937318849140    0.687445665540
C    0.312475879240    0.937396468600    0.937423513520
C    0.562431681020    0.187320830440    0.187342167240
C    0.562382828040    0.187524393500    0.437599866780
C    0.562362886000    0.187404162720    0.687643585640
C    0.562451260820    0.187479895480    0.937524722860
C    0.562383870400    0.437575891060    0.187547968620
C    0.561723643280    0.438060005080    0.686684900220
C    0.562475489360    0.437474203980    0.937507772420
C    0.562365858560    0.687616744000    0.187431640560
C    0.561725385600    0.686661450340    0.438084340160
C    0.562800772860    0.687897700920    0.687922604760
C    0.562509575080    0.687488941160    0.937492074460
C    0.562452337860    0.937502759820    0.187502336920
C    0.562475856560    0.937486301260    0.437495417220
C    0.562509071080    0.937469224740    0.687509961080
C    0.562498744540    0.937487038140    0.937509485620
C    0.812462346680    0.187504715340    0.187523172300
C    0.812602778940    0.187357709120    0.437552700420
C    0.812335704300    0.187617478700    0.687477896760
C    0.812447937800    0.187519173480    0.937487537800
C    0.812601768580    0.437531990220    0.187380219400
C    0.812293450840    0.437538930020    0.437563263780
C    0.812290213820    0.437626853960    0.687465718400
C    0.812453136140    0.437515708360    0.937494296020
C    0.812334517540    0.687456168040    0.187640758700
C    0.812289208420    0.687442597960    0.437650462960
C    0.812700776100    0.687620835360    0.687641557200
C    0.812544452660    0.687528811980    0.937574537400
C    0.812448129960    0.937468074880    0.187538145240
C    0.812453054740    0.937474404100    0.437534105440
C    0.812543973540    0.937554619440    0.687547128700
C    0.812504247300    0.937517726740    0.937536473540
C    0.187447941020    0.187494600460    0.062570036820
C    0.187522283520    0.187576166720    0.312577071180
C    0.187143670160    0.187110876560    0.562521652980
C    0.187433438300    0.187403836580    0.812548064840