&CONTROL
calculation = 'scf'
restart_mode = 'from_scratch'
prefix = 'pwscf'
pseudo_dir = './'
outdir = './'
tprnfor = .TRUE.
verbosity = 'high'
forc_conv_thr = 0.000039
/
&SYSTEM
ibrav = 0
nat = 511
ntyp = 2
ecutwfc = 80
tot_charge = -1
nspin = 2
tot_magnetization = 2
nbnd = 1032
/
&ELECTRONS
electron_maxstep = 600
conv_thr = 1.0d-10
mixing_mode = 'plain'
mixing_beta = 0.7
diagonalization = 'david'
diago_full_acc = .TRUE.
startingpot = 'atomic'
startingwfc = 'atomic+random'
/
&IONS
ion_dynamics='bfgs'
ion_positions='default'
/
ATOMIC_SPECIES
C  12.011   C_ONCV_PBE-1.2.upf
N  14.0067  N_ONCV_PBE-1.2.upf
CELL_PARAMETERS angstrom
14.272  0.0000  0.0000
0.0000  14.272  0.0000
0.0000  0.0000  14.272
K_POINTS gamma
ATOMIC_POSITIONS crystal
C    0.000014115790    0.000013243670    0.000010833090
C   -0.000053954760   -0.000060607930    0.250016150080
C    0.000011000710    0.000002350480    0.500007125930
C    0.000085008990    0.000089561420    0.749997710560
C   -0.000053847780    0.250018528520   -0.000063184220
C   -0.000118908170    0.249952566780    0.249950070800
C   -0.000147621350    0.250043054100    0.499957274400
C   -0.000074061710    0.250080623230    0.749930953630
C    0.000011010940    0.500009557570   -0.000000531450
C   -0.000147578320    0.499959887580    0.250040261770
C   -0.000047389000    0.500005265290    0.500002477770
C    0.000089070970    0.500052259300    0.749984354350
C    0.000084958350    0.750000136860    0.000086781910
C   -0.000074153630    0.749933689390    0.250077820390
C    0.000089061860    0.749987131790    0.500049622720
C    0.000267118600    0.750085214360    0.750082530240
C    0.250022620270   -0.000054410960   -0.000057490540
C    0.249964680930   -0.000127554170    0.249959100150
C    0.250050743140   -0.000145645130    0.499962137170
C    0.250081535470   -0.000064539660    0.749933406740
C    0.249964909640    0.249962195860   -0.000130774000
C    0.249931206130    0.249923002820    0.249919923030
C    0.249485469820    0.249494495310    0.499903938900
C    0.250015175130    0.250025268040    0.749844081670
C    0.250050698340    0.499965008520   -0.000148887720
C    0.249485434640    0.499907357460    0.249491161510
C    0.250259451790    0.499754459170    0.499750896880
C    0.250027219370    0.499889007100    0.749903352000
C    0.250081333400    0.749936541870   -0.000068408220
C    0.250014781290    0.749847773290    0.250021387500
C    0.250027237370    0.749906814230    0.499885585900
C    0.250407630450    0.749769893230    0.749766330530
C    0.500012689560    0.000002901270   -0.000000150970
C    0.499966521200   -0.000156638750    0.250047436760
C    0.500006529880   -0.000040843680    0.500002394040
C    0.500049519350    0.000102491230    0.749977408280
C    0.499966590630    0.250050212700   -0.000159460110
C    0.499942402000    0.249464295970    0.249461311200
C    0.499756276320    0.250326908950    0.499729408270
C    0.499875782810    0.250086077560    0.749852663480
C    0.500006450270    0.500005103310   -0.000043709870
C    0.499756102160    0.499732865110    0.250323474440
C    0.500181929280    0.500200806680    0.749502366320
C    0.500049370700    0.749980361440    0.000099159820
C    0.499875514310    0.749855737850    0.250082932610
C    0.500181798150    0.749505462870    0.500197668420
C    0.500443156120    0.750573186290    0.750570193900
C    0.749999149790    0.000083726660    0.000081344160
C    0.749937056890   -0.000084597160    0.250074676680
C    0.749982931630    0.000090684300    0.500044845480
C    0.750077407690    0.000276308540    0.750074504630
C    0.749937085240    0.250076983210   -0.000087007430
C    0.749862914200    0.250006646230    0.250004189890
C    0.749932897980    0.250019109060    0.499845901430
C    0.749754941400    0.250422523130    0.749741866670
C    0.749982914570    0.500047157930    0.000088170690
C    0.749932971200    0.499848887090    0.250015961880
C    0.749524501870    0.500179808170    0.500176641340
C    0.750564970050    0.500446560190    0.750553491770
C    0.750077367390    0.750076887150    0.000273789580
C    0.749755150660    0.749744823040    0.250419501980
C    0.750565068460    0.750556288580    0.500443802290
C    0.750368351960    0.750370276050    0.750367794280
C   -0.000054379800    0.124977188530    0.124974807220
C   -0.000094157340    0.124953808400    0.374968698700
C   -0.000075370550    0.125093031240    0.624972883370
C   -0.000013291680    0.125064878360    0.874954586610
C   -0.000094074350    0.374971099290    0.124951157230
C   -0.000165467790    0.374992727090    0.374990019860
C   -0.000061695060    0.375058503710    0.624947026410
C   -0.000019633320    0.375040466000    0.874939318950
C   -0.000075432340    0.624975464510    0.125090079550
C   -0.000061673130    0.624949767340    0.375055720020
C    0.000138553830    0.625033559080    0.625030778630
C    0.000190076910    0.625049299780    0.875075121440
C   -0.000013397450    0.874957096860    0.125062298480
C   -0.000019761470    0.874942096860    0.375037919240
C    0.000190107430    0.875077962510    0.625046815910
C    0.000144496400    0.875051922470    0.875049403460
C    0.249961741170    0.124928251650    0.124925316010
C    0.249931769320    0.124841344140    0.374915886220
C    0.249942094070    0.124904348730    0.624915025490
C    0.250012000170    0.124991442100    0.874898876330
C    0.249931709980    0.374918813920    0.124838344330
C    0.249949556960    0.374940551470    0.374937199010
C    0.249955516090    0.374889895210    0.624765063840
C    0.250015684570    0.374995711000    0.874864634620
C    0.249941760280    0.624918467300    0.124900457150
C    0.249955304300    0.624768817870    0.374886100560
C    0.250494028580    0.624597686050    0.624594248190
C    0.250351996570    0.624945011070    0.874699448670
C    0.250011674730    0.874902158770    0.124987858980
C    0.250015379500    0.874868210830    0.374992269000
C    0.250351965560    0.874703119180    0.624941838810
C    0.250132978630    0.874920014560    0.874916655800
C    0.499976172210    0.124788295180    0.124785581350
C    0.499912569440    0.124951110350    0.374933611090
C    0.499931987220    0.125140222690    0.624851752160
C    0.499973512590    0.125057521230    0.874937833080
C    0.499912511350    0.374936415320    0.124948248760
C    0.500249802380    0.375001756480    0.374998302410
C    0.499296113370    0.376189779170    0.623319377880
C    0.500005652060    0.375200696640    0.874703374490
C    0.499931640470    0.624855026270    0.125136778430
C    0.499295920790    0.623322502880    0.376186600310
C    0.503263203970    0.625038940610    0.625035891210
C    0.500171392350    0.625065947080    0.874997381040
C    0.499973341160    0.874940998980    0.125054208980
C    0.500005503100    0.874706316700    0.375197706210
C    0.500171421850    0.875000392190    0.625063124440
C    0.500139938190    0.875210511240    0.875207530890
C    0.749938540340    0.125002935860    0.125000639290
C    0.749931686620    0.124986087340    0.374983030770
C    0.749859764700    0.125245884970    0.624920386280
C    0.749948436360    0.125229384870    0.874921137090
C    0.749931736510    0.374985425170    0.124983534070
C    0.749745097480    0.375034250290    0.375031332650
C    0.749150292970    0.375904000000    0.624779297080
C    0.749906138810    0.375179337460    0.874888354430
C    0.749859765850    0.624923014170    0.125243104270
C    0.749150187610    0.624782383930    0.375900874140
C    0.750724099130    0.625559705610    0.625556799950
C    0.750292141820    0.625237546970    0.875377486290
C    0.749948454230    0.874923661840    0.125226832490
C    0.749906194610    0.874890935970    0.375176828690
C    0.750292222250    0.875380028660    0.625235194700
C    0.750143916250    0.875215645280    0.875213276740
C    0.124983463350   -0.000058967300    0.124978488050
C    0.124966464830   -0.000101015530    0.374972435550
C    0.125095410390   -0.000072493610    0.624975666280
C    0.125064350110   -0.000009547020    0.874957910900
C    0.124934513660    0.249953481350    0.124922792550
C    0.124836836390    0.249919392300    0.374913323030
C    0.124891447500    0.249940362620    0.624917668170
C    0.124986971710    0.250011761610    0.874900078290
C    0.124804638280    0.499966583920    0.124798946710
C    0.124936632950    0.499903272880    0.374934462640
C    0.125107568900    0.499937729070    0.624870034570
C    0.125039040400    0.499975341100    0.874958486040
C    0.125010721330    0.749934767120    0.125010564420
C    0.124992371460    0.749923730130    0.374994461180
C    0.125228213520    0.749874161360    0.624937493210
C    0.125223983860    0.749955386310    0.874936069530
C    0.374978803910   -0.000104356240    0.124962121900
C    0.375001592920   -0.000167569510    0.374997870370
C    0.375060181770   -0.000050729710    0.624946555110
C    0.375041873380   -0.000012170200    0.874939067750
C    0.374928360630    0.249925219480    0.124835187440
C    0.374965589140    0.249986280860    0.374942321020
C    0.374878926280    0.250000583410    0.624743343250
C    0.374991219780    0.250027421310    0.874855299230
C    0.374944219870    0.499901175150    0.124954721290
C    0.374947682030    0.500111684980    0.375005968510
C    0.376021844830    0.499315101200    0.623428405050
C    0.375190017600    0.500013656870    0.874714109340
C    0.374995637740    0.749910690230    0.125011163860
C    0.375042584570    0.749701947560    0.375071267080
C    0.375891095790    0.749149978340    0.624812271590
C    0.375175505690    0.749915066350    0.874906147140
C    0.624978220590   -0.000087329260    0.125089112000
C    0.624950841170   -0.000064910570    0.375055651030
C    0.625027301460    0.000149774670    0.625023416090
C    0.625045629160    0.000197340950    0.875066409770
C    0.624930657720    0.249929279090    0.124879840720
C    0.624789220490    0.249966582060    0.374864224570
C    0.624577008600    0.250559508100    0.624545586530
C    0.624935604580    0.250363335190    0.874676441500
C    0.624867655550    0.499922098880    0.125127403950
C    0.623446472330    0.499174220020    0.376099371440
C    0.625034446260    0.503262623070    0.625000621390
C    0.625059719960    0.500176338610    0.874989276080
C    0.624929033590    0.749849500780    0.125251750690
C    0.624799648330    0.749119647550    0.375909677880
C    0.625561986450    0.750716771430    0.625562065980
C    0.625236296890    0.750294588470    0.875380378310
C    0.874959874900   -0.000018230790    0.125059436830
C    0.874946075430   -0.000028726700    0.375035083380
C    0.875071733570    0.000194101940    0.625043219690
C    0.875047778150    0.000147528730    0.875045394260
C    0.874909274990    0.250003557570    0.124974695740
C    0.874884785880    0.250001386460    0.374976496860
C    0.874698764220    0.250353567050    0.624928074370
C    0.874912495020    0.250133371330    0.874904241460
C    0.874971719660    0.499964162890    0.125023147800
C    0.874724229880    0.499999284270    0.375184316460
C    0.874999764410    0.500173570870    0.625057534650
C    0.875205608890    0.500140220580    0.875202930580
C    0.874929637280    0.749945260570    0.125226506840
C    0.874901205100    0.749905254820    0.375175636320
C    0.875378170610    0.750295384000    0.625236655000
C    0.875212103030    0.750147135030    0.875214971770
C    0.124983600580    0.124981188260   -0.000061696910
C    0.124934452860    0.124925602240    0.249950852520
C    0.124804798350    0.124802237220    0.499963635530
C    0.125010999310    0.125013880210    0.749931857900
C    0.124966633010    0.374975155300   -0.000104056230
C    0.124836838070    0.374916187940    0.249916437800
C    0.124936617290    0.374937580980    0.499900160890
C    0.124992651620    0.374997687950    0.749920438000
C    0.125095281770    0.624978445710   -0.000075935010
C    0.124891166720    0.624920829950    0.249936981720
C    0.125107584050    0.624873300700    0.499934502720
C    0.125228229660    0.624940649100    0.749870787760
C    0.125064240430    0.874960631430   -0.000012519710
C    0.124986665490    0.874903095240    0.250008757290
C    0.125038844890    0.874961816660    0.499972351880
C    0.125224001370    0.874939384690    0.749952479840
C    0.374978935430    0.124965416010   -0.000107601290
C    0.374928350840    0.124838074020    0.249922385480
C    0.374944451010    0.124958009120    0.499897949500
C    0.374995946650    0.125015113080    0.749907089630
C    0.375001635720    0.375000744390   -0.000170555680
C    0.374965524610    0.374945743630    0.249982855740
C    0.374947809350    0.375009322280    0.500108306270
C    0.375042804250    0.375074707720    0.749698609070
C    0.375060003290    0.624949577370   -0.000054264940
C    0.374878649170    0.624746859250    0.249997008580
C    0.376021749240    0.623431624430    0.499311823330
C    0.375891090240    0.624815556120    0.749146643510
C    0.375041738140    0.874942366860   -0.000015863000
C    0.374990954560    0.874858840570    0.250023801680
C    0.375189966960    0.874717290100    0.500010543730
C    0.375175538690    0.874909734840    0.749911860100
C    0.624978236320    0.125091638540   -0.000089867870
C    0.624930631450    0.124882389300    0.249926799880
C    0.624867757830    0.125130222580    0.499919354360
C    0.624929200690    0.125254804320    0.749846566690
C    0.624950856250    0.375058138570   -0.000067484210
C    0.624789178520    0.374867152600    0.249963608430
C    0.623446704990    0.376102561490    0.499170989900
C    0.624799786400    0.375912644510    0.749116734580
C    0.625027204430    0.625025946000    0.000147053610
C    0.624576896920    0.624548956290    0.250556090540
C    0.625034319490    0.625003547610    0.503259686730
C    0.625561933630    0.625564958200    0.750713759700
C    0.625045607720    0.875069066050    0.000194595210
C    0.624935543950    0.874679124490    0.250360571840
C    0.625059734250    0.874991953100    0.500173720190
C    0.625236319900    0.875383017470    0.750292078790
C    0.874959899690    0.125061727620   -0.000020568280
C    0.874909233270    0.124977050060    0.250001311040
C    0.874971603250    0.125025852510    0.499961765650
C    0.874929575620    0.125229214450    0.749942736760
C    0.874946129730    0.375037318960   -0.000031223590
C    0.874884813630    0.374979012370    0.249998774220
C    0.874724186160    0.375187325750    0.499996388830
C    0.874901043320    0.375178387790    0.749902495960
C    0.875071695130    0.625045511920    0.000191508350
C    0.874698971640    0.624930917960    0.250350529190
C    0.874999810180    0.625060307860    0.500170768260
C    0.875378128100    0.625239122620    0.750292827220
C    0.875047766280    0.875047719540    0.000145127410
C    0.874912526520    0.874906824570    0.250130902900
C    0.875205662570    0.875205489420    0.500137894540
C    0.875212133260    0.875217402870    0.750144831910
C    0.187463446140    0.062419022020    0.187454912800
C    0.187440781030    0.062348904690    0.437445836200
C    0.187541661340    0.062444154760    0.687442624320
C    0.187526699180    0.062482564970    0.937436510300
C    0.187405608350    0.312416714360    0.187395930410
C    0.187310940690    0.312323192180    0.437338415020
C    0.187450324330    0.312504689340    0.687357375910
C    0.187489341570    0.312492575770    0.937382523830
C    0.187183066780    0.562356118560    0.187183779400
C    0.187542954220    0.562310485920    0.437431604360
C    0.187723120130    0.562420484590    0.687321471640
C    0.187661345460    0.562464336670    0.937323559340
C    0.187517366140    0.812392210510    0.187517926980
C    0.187479307980    0.812471318170    0.437529736930
C    0.187795967400    0.812325400830    0.687406802390
C    0.187625284260    0.812451025910    0.937449873600
C    0.437454665640    0.062341428450    0.187431106180
C    0.437458656450    0.062417842550    0.437448792580
C    0.437527728260    0.062555340520    0.687416514730
C    0.437521572560    0.062492100890    0.937447955970
C    0.437361667990    0.312319225470    0.187321035910
C    0.437328540320    0.312621763540    0.437280194860
C    0.437642260630    0.312400314990    0.687445013870
C    0.437510257180    0.312570950590    0.937287966780
C    0.437435852080    0.562294406380    0.187582233740
C    0.438833587170    0.561987413080    0.686149335000
C    0.437586350280    0.562517515820    0.937405899710
C    0.437526328730    0.812442610580    0.187508572680
C    0.437616827260    0.812142969440    0.437628080890
C    0.437837396030    0.812380613580    0.687530993510
C    0.437603568220    0.812491815890    0.937525284370
C    0.687448935120    0.062425696970    0.187531509290
C    0.687428534440    0.062539700870    0.437517775860
C    0.687494936900    0.062716285870    0.687487072500
C    0.687496582720    0.062660169510    0.937496241580
C    0.687370575920    0.312491451070    0.187444797330
C    0.687552922970    0.312309910340    0.437647667570
C    0.687121922990    0.313073277120    0.687094390970
C    0.687442693790    0.312645351430    0.937371738520
C    0.687317722900    0.562389105710    0.187751419040
C    0.686159648620    0.561939451700    0.438833023800
C    0.688676339450    0.563018907160    0.688661263020
C    0.687582418100    0.562615499720    0.937629929270
C    0.687400546360    0.812303245720    0.187806773730
C    0.687521749540    0.812360334690    0.437844280150
C    0.687890812760    0.813039599980    0.687890453290
C    0.687640981840    0.812682548860    0.937799129750
C    0.937442633240    0.062474335950    0.187518565120
C    0.937466976840    0.062472800010    0.437515220070
C    0.937504126400    0.062661262370    0.687492624380
C    0.937510994440    0.062577305530    0.937506165880
C    0.937396791880    0.312484178120    0.187473783090
C    0.937303666350    0.312557743410    0.437499066360
C    0.937384617650    0.312641650840    0.687438894980
C    0.937442480020    0.312564459480    0.937433419480
C    0.937326381010    0.562457696310    0.187652103440
C    0.937406549500    0.562513039140    0.437580761170
C    0.937630626100    0.562617118420    0.687583511000
C    0.937636087020    0.562549422120    0.937634973560
C    0.937445168550    0.812443618040    0.187623009430
C    0.937519331900    0.812489884640    0.437600524940
C    0.937795506250    0.812687633120    0.687642347660
C    0.937635135920    0.812573325130    0.937636429240
C    0.062486193210    0.062482214830    0.062479671500
C    0.062442477040    0.062432964740    0.312482739630
C    0.062438346240    0.062435519800    0.562457693860
C    0.062543989600    0.062546436000    0.812466249830
C    0.062442600580    0.312485247890    0.062430174340
C    0.062324637100    0.312427671130    0.312424938050
C    0.062407644880    0.312503200020    0.562426617120
C    0.062469122320    0.312542522650    0.812420902710
C    0.062438206980    0.562460432660    0.062432295820
C    0.062407632250    0.562429475410    0.312500241220
C    0.062563263080    0.562479010880    0.562475993670
C    0.062639643970    0.562520790010    0.812468576580
C    0.062543798630    0.812468894180    0.062543528270
C    0.062468862630    0.812423883900    0.312539619570
C    0.062639592890    0.812471628950    0.562517974000
C    0.062728681580    0.812516070950    0.812513203250
C    0.312491712560    0.062437021320    0.062433879090
C    0.312438548620    0.062322940330    0.312429630620
C    0.312508973190    0.062420556360    0.562425097750
C    0.312544588410    0.062481761880    0.812417131540
C    0.312438610630    0.312432502760    0.062319984850
C    0.312404309000    0.312396436580    0.312393010670
C    0.311727604090    0.311758318080    0.561975431600
C    0.312545637000    0.312557419930    0.812326324750
C    0.312508747600    0.562428226780    0.062417065330
C    0.311727505140    0.561978934180    0.311754902790
C    0.313069259840    0.562063710360    0.562060413210
C    0.312964543070    0.562409197400    0.812003852980
C    0.312544242030    0.812420605580    0.062477784120
C    0.312545303720    0.812329977010    0.312553711180
C    0.312964504530    0.812007342390    0.562405893210
C    0.312700186070    0.812385103810    0.812381631980
C    0.562461896330    0.062425982110    0.062423352980
C    0.562434902800    0.062407607410    0.312499654750
C    0.562476236600    0.062581441200    0.562465917170
C    0.562516913420    0.062656706240    0.812452573150
C    0.562434921740    0.312502234430    0.062404958620
C    0.561993921600    0.311718086320    0.311714965350
C    0.562050190300    0.313183531000    0.561970610080
C    0.562397457650    0.312989138260    0.811975812980
C    0.562476057930    0.562468665400    0.062578543400
C    0.562050054750    0.561974036140    0.313180115810
C    0.562707052820    0.562716571270    0.812524319230
C    0.562516726440    0.812455539320    0.062653521940
C    0.562397275790    0.811978711160    0.312986186430
C    0.562707008160    0.812527215880    0.562713717650
C    0.562724879120    0.812956767260    0.812954064690
C    0.812470196880    0.062539466050    0.062537176040
C    0.812428140380    0.062459478860    0.312534825690
C    0.812466176790    0.062643719290    0.562510116450
C    0.812509556880    0.062733573050    0.812504329400
C    0.812428191560    0.312537060690    0.062457072700
C    0.812358511540    0.312534855570    0.312532258380
C    0.812011928470    0.312961764720    0.562382150240
C    0.812374050370    0.312704746400    0.812365006190
C    0.812466181630    0.562512470370    0.062641119010
C    0.812012025590    0.562385200350    0.312958575380
C    0.812536733100    0.562705586420    0.562702697590
C    0.812950300060    0.562726585000    0.812947519210
C    0.812509546310    0.812506725300    0.062731059100
C    0.812374182280    0.812367717760    0.312702089340
C    0.812950364790    0.812950083850    0.562724171070
C    0.812761314240    0.812764791250    0.812762435320
C    0.062427298240    0.187454207440    0.187451637790
C    0.062348664140    0.187430688000    0.437443683260
C    0.062436233920    0.187539517720    0.687442328290
C    0.062481561360    0.187524401790    0.937434711220
C    0.062348686510    0.437446379460    0.187427813730
C    0.062407299830    0.437451565450    0.437448659760
C    0.062534318090    0.437526884180    0.687426387400
C    0.062487110450    0.437520247500    0.937454764620
C    0.062435998960    0.687445188080    0.187536386570
C    0.062534280610    0.687429362210    0.437523956170
C    0.062700457380    0.687503616350    0.687500604670
C    0.062658616360    0.687499032370    0.937507316110
C    0.062481335720    0.937437426060    0.187521749410
C    0.062486920340    0.937457810800    0.437517536680
C    0.062658670120    0.937510468050    0.687496383000
C    0.062577842040    0.937512512080    0.937509869860
C    0.312426595990    0.187399395060    0.187396495710
C    0.312336631340    0.187331893160    0.437337455350
C    0.312502246780    0.187477288590    0.687347910020
C    0.312494657180    0.187491538890    0.937378293520
C    0.312336488270    0.437340802920    0.187328631050
C    0.312536242140    0.437286439900    0.437283082110
C    0.312307376220    0.437670525040    0.687508433610
C    0.312566903420    0.437511267780    0.937295533290
C    0.312501868960    0.687351623590    0.187473303040
C    0.312307299870    0.687511773390    0.437667097060
C    0.313047851500    0.687132386950    0.687128945970
C    0.312643258550    0.687447333960    0.937390161190
C    0.312494304090    0.937381768080    0.187487969370
C    0.312566782240    0.937298705340    0.437508255120
C    0.312643336070    0.937393894920    0.687444253620
C    0.312567713620    0.937445850700    0.937442462210
C    0.562364007410    0.187161064870    0.187158391020
C    0.562317504870    0.187573625750    0.437414358240
C    0.562411181350    0.187771507710    0.687282544520
C    0.562462208510    0.187667350090    0.937307072080
C    0.562317382450    0.437417342830    0.187570642860
C    0.561969259940    0.438878881690    0.686118371010
C    0.562514894780    0.437588795040    0.937398481910
C    0.562410812030    0.687285898600    0.187768048230
C    0.561969060150    0.686121307870    0.438875845430
C    0.563012937780    0.688683558510    0.688680459030
C    0.562615248490    0.687583827980    0.937635595030
C    0.562462082880    0.937309824210    0.187664544910
C    0.562514862380    0.937401191680    0.437586160260
C    0.562615315990    0.937638463620    0.687581213990
C    0.562548772120    0.937636637670    0.937633832860
C    0.812399612540    0.187508863170    0.187506567300
C    0.812492371620    0.187461879710    0.437519650710
C    0.812314124100    0.187805207450    0.687390769830
C    0.812447464400    0.187624281690    0.937436008300
C    0.812492496790    0.437522227110    0.187459062550
C    0.812164916170    0.437609473460    0.437606440740
C    0.812375523110    0.437838653030    0.687514709900
C    0.812488686320    0.437602541080    0.937512720010
C    0.812314275820    0.687393481420    0.187802295200
C    0.812375656660    0.687517596580    0.437835709780
C    0.813038387700    0.687892530780    0.687889947300
C    0.812682018380    0.687641645340    0.937797995250
C    0.812447442630    0.937438437790    0.187621921470
C    0.812488695370    0.937515208750    0.437600258320
C    0.812682080520    0.937800486120    0.687639364750
C    0.812571670350    0.937636100320    0.937633765970
C    0.187463591660    0.187457754730    0.062416049610
C    0.187405631460    0.187398898310    0.312413870490
C    0.187183204280    0.187187314730    0.562352746290
C    0.187517770550    0.187521471890    0.812388888770
C    0.187440739460    0.437448668790    0.062345819920
C    0.187310955110    0.437341699790    0.312319948980
C    0.187542941580    0.437435122620    0.562306960400
C    0.187479472240    0.437533127800    0.812467820630
C    0.187541335870    0.687445786400    0.062440362670
C    0.187449965320    0.687360990230    0.312500977140
C    0.187723129650    0.687324971190    0.562417067520
C    0.187795999480    0.687410062620    0.812321821060
C    0.187526481890    0.937439496310    0.062479448790
C    0.187488988920    0.937385851690    0.312489420160
C    0.187661292300    0.937326955610    0.562461420130
C    0.187625390980    0.937453338180    0.812447982600
C    0.437454733980    0.187433939780    0.062338577020
C    0.437361719380    0.187324023570    0.312316243730
C    0.437436174420    0.187585774820    0.562290885910
C    0.437526608780    0.187511912240    0.812439420160
C    0.437458563590    0.437451626620    0.062414912990
C    0.437328461740    0.437283707980    0.312618236420
C    0.437617011710    0.437631365480    0.812139793600
C    0.437527401400    0.687419760380    0.062551673780
C    0.437642023090    0.687448213690    0.312397035130
C    0.438833532100    0.686152481660    0.561984243030
C    0.437837404600    0.687534080890    0.812377309760
C    0.437521372440    0.937451267550    0.062488590920
C    0.437510075240    0.937291041390    0.312567885030
C    0.437586378780    0.937408987670    0.562514682350
C    0.437603674620    0.937528707430    0.812488773760
C    0.687448964210    0.187533853650    0.062423298920
C    0.687370550710    0.187447382930    0.312488927360
C    0.687317824560    0.187754408210    0.562386198190
C    0.687400558850    0.187809602700    0.812300506430
C    0.687428513140    0.437520197310    0.062537146630
C    0.687552830550    0.437650735150    0.312306913260
C    0.686159794970    0.438836130190    0.561936339910
C    0.687521719760    0.437846972650    0.812357618320
C    0.687494826780    0.687489628820    0.062713554770
C    0.687121903350    0.687097594190    0.313070023090
C    0.688676331700    0.688664240970    0.563015898830
C    0.687890762500    0.687892971830    0.813036924170
C    0.687496562260    0.937498716500    0.062657666840
C    0.687442657250    0.937374249090    0.312642895900
C    0.687582462820    0.937632488600    0.562613111490
C    0.687641005860    0.937801655760    0.812680127710
C    0.937442692780    0.187520852600    0.062471954020
C    0.937396749560    0.187476273640    0.312481807520
C    0.937326251590    0.187654952710    0.562455146040
C    0.937445231950    0.187625604300    0.812441063570
C    0.937467068590    0.437517538640    0.062470141480
C    0.937303696100    0.437501692380    0.312555006530
C    0.937406527440    0.437583544380    0.562510315830
C    0.937519300620    0.437603040950    0.812487206320
C    0.937504079550    0.687495039620    0.062658532440
C    0.937384727610    0.687441598830    0.312638867390
C    0.937630631050    0.687586180120    0.562614487710
C    0.937795479950    0.687644798930    0.812685033560
C    0.937510932500    0.937508527990    0.062574922030
C    0.937442389470    0.937436003320    0.312562092960
C    0.937636130700    0.937637668440    0.562547074610
C    0.937635173840    0.937638931710    0.812570967360
C    0.564642890530    0.433165869780    0.433162724360
C    0.433032110640    0.433271221930    0.564531860010
C    0.433032003880    0.564534949540    0.433268065680
N    0.568870722720    0.568890931380    0.568887988760
