&CONTROL
calculation = 'relax'
restart_mode = 'from_scratch'
prefix = 'pwscf'
pseudo_dir = './'
outdir = './'
wf_collect = .TRUE.
tprnfor = .TRUE.
verbosity = 'high'
forc_conv_thr = 0.000039
/
&SYSTEM
ibrav = 0
nat = 511
ntyp = 2
ecutwfc = 80
tot_charge = -1
nspin = 2
tot_magnetization = 2
occupations = 'from_input'
nbnd = 1032
/
&ELECTRONS
electron_maxstep = 600
conv_thr = 1.0d-10
mixing_mode = 'plain'
mixing_beta = 0.7
diagonalization = 'david'
diago_full_acc = .TRUE.
startingpot = 'atomic'
startingwfc = 'atomic+random'
/
&IONS
ion_dynamics='bfgs'
ion_positions='default'
/
ATOMIC_SPECIES
C  12.011   C_ONCV_PBE-1.2.upf
N  14.0067  N_ONCV_PBE-1.2.upf
CELL_PARAMETERS angstrom
14.272  0.0000  0.0000
0.0000  14.272  0.0000
0.0000  0.0000  14.272
K_POINTS gamma
OCCUPATIONS
1 1 1 1 1 1 1 1 1 1
1 1 1 1 1 1 1 1 1 1
1 1 1 1 1 1 1 1 1 1
1 1 1 1 1 1 1 1 1 1
1 1 1 1 1 1 1 1 1 1
1 1 1 1 1 1 1 1 1 1
1 1 1 1 1 1 1 1 1 1
1 1 1 1 1 1 1 1 1 1
1 1 1 1 1 1 1 1 1 1
1 1 1 1 1 1 1 1 1 1
1 1 1 1 1 1 1 1 1 1
1 1 1 1 1 1 1 1 1 1
1 1 1 1 1 1 1 1 1 1
1 1 1 1 1 1 1 1 1 1
1 1 1 1 1 1 1 1 1 1
1 1 1 1 1 1 1 1 1 1
1 1 1 1 1 1 1 1 1 1
1 1 1 1 1 1 1 1 1 1
1 1 1 1 1 1 1 1 1 1
1 1 1 1 1 1 1 1 1 1
1 1 1 1 1 1 1 1 1 1
1 1 1 1 1 1 1 1 1 1
1 1 1 1 1 1 1 1 1 1
1 1 1 1 1 1 1 1 1 1
1 1 1 1 1 1 1 1 1 1
1 1 1 1 1 1 1 1 1 1
1 1 1 1 1 1 1 1 1 1
1 1 1 1 1 1 1 1 1 1
1 1 1 1 1 1 1 1 1 1
1 1 1 1 1 1 1 1 1 1
1 1 1 1 1 1 1 1 1 1
1 1 1 1 1 1 1 1 1 1
1 1 1 1 1 1 1 1 1 1
1 1 1 1 1 1 1 1 1 1
1 1 1 1 1 1 1 1 1 1
1 1 1 1 1 1 1 1 1 1
1 1 1 1 1 1 1 1 1 1
1 1 1 1 1 1 1 1 1 1
1 1 1 1 1 1 1 1 1 1
1 1 1 1 1 1 1 1 1 1
1 1 1 1 1 1 1 1 1 1
1 1 1 1 1 1 1 1 1 1
1 1 1 1 1 1 1 1 1 1
1 1 1 1 1 1 1 1 1 1
1 1 1 1 1 1 1 1 1 1
1 1 1 1 1 1 1 1 1 1
1 1 1 1 1 1 1 1 1 1
1 1 1 1 1 1 1 1 1 1
1 1 1 1 1 1 1 1 1 1
1 1 1 1 1 1 1 1 1 1
1 1 1 1 1 1 1 1 1 1
1 1 1 1 1 1 1 1 1 1
1 1 1 1 1 1 1 1 1 1
1 1 1 1 1 1 1 1 1 1
1 1 1 1 1 1 1 1 1 1
1 1 1 1 1 1 1 1 1 1
1 1 1 1 1 1 1 1 1 1
1 1 1 1 1 1 1 1 1 1
1 1 1 1 1 1 1 1 1 1
1 1 1 1 1 1 1 1 1 1
1 1 1 1 1 1 1 1 1 1
1 1 1 1 1 1 1 1 1 1
1 1 1 1 1 1 1 1 1 1
1 1 1 1 1 1 1 1 1 1
1 1 1 1 1 1 1 1 1 1
1 1 1 1 1 1 1 1 1 1
1 1 1 1 1 1 1 1 1 1
1 1 1 1 1 1 1 1 1 1
1 1 1 1 1 1 1 1 1 1
1 1 1 1 1 1 1 1 1 1
1 1 1 1 1 1 1 1 1 1
1 1 1 1 1 1 1 1 1 1
1 1 1 1 1 1 1 1 1 1
1 1 1 1 1 1 1 1 1 1
1 1 1 1 1 1 1 1 1 1
1 1 1 1 1 1 1 1 1 1
1 1 1 1 1 1 1 1 1 1
1 1 1 1 1 1 1 1 1 1
1 1 1 1 1 1 1 1 1 1
1 1 1 1 1 1 1 1 1 1
1 1 1 1 1 1 1 1 1 1
1 1 1 1 1 1 1 1 1 1
1 1 1 1 1 1 1 1 1 1
1 1 1 1 1 1 1 1 1 1
1 1 1 1 1 1 1 1 1 1
1 1 1 1 1 1 1 1 1 1
1 1 1 1 1 1 1 1 1 1
1 1 1 1 1 1 1 1 1 1
1 1 1 1 1 1 1 1 1 1
1 1 1 1 1 1 1 1 1 1
1 1 1 1 1 1 1 1 1 1
1 1 1 1 1 1 1 1 1 1
1 1 1 1 1 1 1 1 1 1
1 1 1 1 1 1 1 1 1 1
1 1 1 1 1 1 1 1 1 1
1 1 1 1 1 1 1 1 1 1
1 1 1 1 1 1 1 1 1 1
1 1 1 1 1 1 1 1 1 1
1 1 1 1 1 1 1 1 1 1
1 1 1 1 1 1 1 1 1 1
1 1 1 1 1 1 1 1 1 1
1 1 1 1 1 1 1 1 1 1
1 1 1 1 0 0 0 0 0 0
0 0
1 1 1 1 1 1 1 1 1 1
1 1 1 1 1 1 1 1 1 1
1 1 1 1 1 1 1 1 1 1
1 1 1 1 1 1 1 1 1 1
1 1 1 1 1 1 1 1 1 1
1 1 1 1 1 1 1 1 1 1
1 1 1 1 1 1 1 1 1 1
1 1 1 1 1 1 1 1 1 1
1 1 1 1 1 1 1 1 1 1
1 1 1 1 1 1 1 1 1 1
1 1 1 1 1 1 1 1 1 1
1 1 1 1 1 1 1 1 1 1
1 1 1 1 1 1 1 1 1 1
1 1 1 1 1 1 1 1 1 1
1 1 1 1 1 1 1 1 1 1
1 1 1 1 1 1 1 1 1 1
1 1 1 1 1 1 1 1 1 1
1 1 1 1 1 1 1 1 1 1
1 1 1 1 1 1 1 1 1 1
1 1 1 1 1 1 1 1 1 1
1 1 1 1 1 1 1 1 1 1
1 1 1 1 1 1 1 1 1 1
1 1 1 1 1 1 1 1 1 1
1 1 1 1 1 1 1 1 1 1
1 1 1 1 1 1 1 1 1 1
1 1 1 1 1 1 1 1 1 1
1 1 1 1 1 1 1 1 1 1
1 1 1 1 1 1 1 1 1 1
1 1 1 1 1 1 1 1 1 1
1 1 1 1 1 1 1 1 1 1
1 1 1 1 1 1 1 1 1 1
1 1 1 1 1 1 1 1 1 1
1 1 1 1 1 1 1 1 1 1
1 1 1 1 1 1 1 1 1 1
1 1 1 1 1 1 1 1 1 1
1 1 1 1 1 1 1 1 1 1
1 1 1 1 1 1 1 1 1 1
1 1 1 1 1 1 1 1 1 1
1 1 1 1 1 1 1 1 1 1
1 1 1 1 1 1 1 1 1 1
1 1 1 1 1 1 1 1 1 1
1 1 1 1 1 1 1 1 1 1
1 1 1 1 1 1 1 1 1 1
1 1 1 1 1 1 1 1 1 1
1 1 1 1 1 1 1 1 1 1
1 1 1 1 1 1 1 1 1 1
1 1 1 1 1 1 1 1 1 1
1 1 1 1 1 1 1 1 1 1
1 1 1 1 1 1 1 1 1 1
1 1 1 1 1 1 1 1 1 1
1 1 1 1 1 1 1 1 1 1
1 1 1 1 1 1 1 1 1 1
1 1 1 1 1 1 1 1 1 1
1 1 1 1 1 1 1 1 1 1
1 1 1 1 1 1 1 1 1 1
1 1 1 1 1 1 1 1 1 1
1 1 1 1 1 1 1 1 1 1
1 1 1 1 1 1 1 1 1 1
1 1 1 1 1 1 1 1 1 1
1 1 1 1 1 1 1 1 1 1
1 1 1 1 1 1 1 1 1 1
1 1 1 1 1 1 1 1 1 1
1 1 1 1 1 1 1 1 1 1
1 1 1 1 1 1 1 1 1 1
1 1 1 1 1 1 1 1 1 1
1 1 1 1 1 1 1 1 1 1
1 1 1 1 1 1 1 1 1 1
1 1 1 1 1 1 1 1 1 1
1 1 1 1 1 1 1 1 1 1
1 1 1 1 1 1 1 1 1 1
1 1 1 1 1 1 1 1 1 1
1 1 1 1 1 1 1 1 1 1
1 1 1 1 1 1 1 1 1 1
1 1 1 1 1 1 1 1 1 1
1 1 1 1 1 1 1 1 1 1
1 1 1 1 1 1 1 1 1 1
1 1 1 1 1 1 1 1 1 1
1 1 1 1 1 1 1 1 1 1
1 1 1 1 1 1 1 1 1 1
1 1 1 1 1 1 1 1 1 1
1 1 1 1 1 1 1 1 1 1
1 1 1 1 1 1 1 1 1 1
1 1 1 1 1 1 1 1 1 1
1 1 1 1 1 1 1 1 1 1
1 1 1 1 1 1 1 1 1 1
1 1 1 1 1 1 1 1 1 1
1 1 1 1 1 1 1 1 1 1
1 1 1 1 1 1 1 1 1 1
1 1 1 1 1 1 1 1 1 1
1 1 1 1 1 1 1 1 1 1
1 1 1 1 1 1 1 1 1 1
1 1 1 1 1 1 1 1 1 1
1 1 1 1 1 1 1 1 1 1
1 1 1 1 1 1 1 1 1 1
1 1 1 1 1 1 1 1 1 1
1 1 1 1 1 1 1 1 1 1
1 1 1 1 1 1 1 1 1 1
1 1 1 1 1 1 1 1 1 1
1 1 1 1 1 1 1 1 1 1
1 1 1 1 1 1 1 1 1 1
1 1 1 1 1 1 1 1 1 1
1 1 1 1 1 1 1 1 1 1
1 0 1 0 0 0 0 0 0 0
0 0
ATOMIC_POSITIONS crystal
C               -0.0000377727       -0.0000267051        0.0000016643
C               -0.0000512864        0.0000052937        0.2500150097
C               -0.0001214497       -0.0000457532        0.5000054510
C               -0.0000260565       -0.0000553895        0.7499905122
C               -0.0000514460        0.2499862745        0.0000344405
C               -0.0000024767        0.2500055542        0.2500351720
C               -0.0000383649        0.2500165797        0.5000451881
C               -0.0000972889        0.2499501646        0.7500401595
C               -0.0001214701        0.4999757191       -0.0000166345
C               -0.0000385092        0.5000153868        0.2500461049
C                0.0000307229        0.4999832108        0.5000124880
C               -0.0000004383        0.4999476171        0.7499754273
C               -0.0000258997        0.7499616078       -0.0000262886
C               -0.0000977650        0.7500112234        0.2499790269
C               -0.0000005867        0.7499459368        0.4999773815
C                0.0000417062        0.7499369514        0.7499665756
C                0.2499473376       -0.0000384788       -0.0000091463
C                0.2499028825        0.0000603134        0.2499626494
C                0.2499492824       -0.0000537558        0.5000065140
C                0.2499379904       -0.0001529870        0.7500226843
C                0.2499034558        0.2499336135        0.0000891169
C                0.2500920408        0.2501600513        0.2501896298
C                0.2495799442        0.2495111930        0.5002758629
C                0.2499322337        0.2498664494        0.7501088190
C                0.2499493497        0.4999769056       -0.0000246896
C                0.2495796518        0.5002464002        0.2495402264
C                0.2507738316        0.4999372854        0.4999666179
C                0.2496217739        0.4996665196        0.7504444102
C                0.2499374564        0.7499935386       -0.0001242348
C                0.2499318493        0.7500796691        0.2498956058
C                0.2496212874        0.7504156995        0.4996958514
C                0.2502111192        0.7497240004        0.7497533967
C                0.4999460688       -0.0000508933       -0.0000217775
C                0.4999580559        0.0000276646        0.2499840202
C                0.4999695709       -0.0000252432        0.5000121649
C                0.4999678868       -0.0001009967        0.7500339275
C                0.4999581860        0.2499546196        0.0000568650
C                0.4999443043        0.2497667659        0.2497963301
C                0.4999247899        0.2501847430        0.5001368516
C                0.4997587905        0.2490819232        0.7509205400
C                0.4999695378        0.4999829437        0.0000041127
C                0.4999248026        0.5001069780        0.2502149338
C                0.4999973361        0.4998373944        0.7498178036
C                0.4999677292        0.7500044059       -0.0000717699
C                0.4997585020        0.7508915948        0.2491108508
C                0.4999974208        0.7497883935        0.4998665456
C                0.5000180472        0.7499821713        0.7500115053
C                0.7499713277       -0.0000130715        0.0000159330
C                0.7499855009       -0.0000166390        0.2500020024
C                0.7499801190       -0.0000168668        0.5000157770
C                0.7499986306       -0.0000329888        0.7500306621
C                0.7499852375        0.2499726650        0.0000125618
C                0.7499689158        0.2499868847        0.2500164808
C                0.7501833517        0.2497061694        0.5000197399
C                0.7498263500        0.2501012401        0.7499329910
C                0.7499800263        0.4999858963        0.0000124485
C                0.7501827532        0.4999897653        0.2497362914
C                0.7496521798        0.5000133716        0.5000430990
C                0.7500470084        0.4999976810        0.7501530895
C                0.7499988033        0.7500012214       -0.0000037750
C                0.7498268644        0.7499037577        0.2501303236
C                0.7500469326        0.7501236151        0.5000272981
C                0.7500478314        0.7500354593        0.7500648969
C               -0.0000323538        0.1250122848        0.1250417398
C               -0.0000300460        0.1250202706        0.3750368227
C               -0.0001060503        0.1249828051        0.6250218328
C               -0.0000574447        0.1249753182        0.8750017387
C               -0.0000301860        0.3750075869        0.1250499481
C               -0.0000062477        0.3750240202        0.3750541210
C               -0.0000115404        0.3749789175        0.6250157677
C               -0.0000990026        0.3749721411        0.8750078236
C               -0.0001061496        0.6249926024        0.1250122128
C               -0.0000120138        0.6249880437        0.3750066230
C                0.0000475164        0.6249378069        0.6249678861
C                0.0000025127        0.6249445152        0.8749391103
C               -0.0000574886        0.8749724465        0.1250045136
C               -0.0000990993        0.8749783888        0.3750012769
C                0.0000023800        0.8749095025        0.6249737950
C                0.0000018000        0.8749323459        0.8749618599
C                0.2499380320        0.1250502760        0.1250797978
C                0.2499858589        0.1250244460        0.3750835554
C                0.2498467645        0.1248103301        0.6250818755
C                0.2499175102        0.1249096557        0.8750440771
C                0.2499862811        0.3750543380        0.1250538669
C                0.2505970625        0.3754161346        0.3754451754
C                0.2499807636        0.3748413981        0.6251388699
C                0.2498365573        0.3748915599        0.8751614238
C                0.2498464568        0.6250528547        0.1248398634
C                0.2499806410        0.6251101645        0.3748701601
C                0.2507387955        0.6244404008        0.6244691874
C                0.2501364360        0.6248956014        0.8748031914
C                0.2499172340        0.8750144771        0.1249391842
C                0.2498361720        0.8751319904        0.3749205052
C                0.2501367444        0.8747740621        0.6249247839
C                0.2499741227        0.8748639680        0.8748934900
C                0.4999631639        0.1249270675        0.1249567907
C                0.4999646878        0.1250408350        0.3750747200
C                0.4999316293        0.1249373175        0.6250518491
C                0.4999050864        0.1246695568        0.8753072710
C                0.4999646708        0.3750456559        0.1250709488
C                0.4998876338        0.3754721371        0.3755027024
C                0.4985203003        0.3744849649        0.6254382963
C                0.4999510613        0.3749697383        0.8750176731
C                0.4999314260        0.6250226382        0.1249672423
C                0.4985196574        0.6254093579        0.3745139139
C                0.5016637928        0.6240884697        0.6241171972
C                0.5000080535        0.6249092490        0.8749337479
C                0.4999049929        0.8752776223        0.1246991631
C                0.4999509041        0.8749880437        0.3749987094
C                0.5000080387        0.8749038534        0.6249382176
C                0.4999848372        0.8749331517        0.8749628708
C                0.7499861192        0.1250044894        0.1250341430
C                0.7500192452        0.1249525860        0.3750322025
C                0.7499234441        0.1249914197        0.6250140860
C                0.7499567732        0.1250194805        0.8749797781
C                0.7500189758        0.3750029175        0.1249825405
C                0.7500314344        0.3749593955        0.3749890530
C                0.7493005480        0.3754744017        0.6249315970
C                0.7499232749        0.3750026076        0.8749731328
C                0.7499233767        0.6249847023        0.1250212369
C                0.7493004896        0.6249020885        0.3755034349
C                0.7501405025        0.6250921800        0.6251212783
C                0.7500369213        0.6249887407        0.8750505423
C                0.7499566889        0.8749503048        0.1250488913
C                0.7499233587        0.8749434983        0.3750318225
C                0.7500368462        0.8750207714        0.6250179830
C                0.7500149354        0.8749744673        0.8750041584
C                0.1249557689        0.0000068894        0.1250128388
C                0.1249115892        0.0000237936        0.3750073880
C                0.1249595587       -0.0001191570        0.6250001630
C                0.1249715258       -0.0000758633        0.8749778842
C                0.1249966078        0.2500125375        0.1251015404
C                0.1250696262        0.2500962153        0.3751043411
C                0.1248985750        0.2498655700        0.6250643159
C                0.1249317503        0.2499270742        0.8750351662
C                0.1247945135        0.5000491974        0.1248494616
C                0.1251714223        0.5000460304        0.3750788107
C                0.1252015730        0.4998918667        0.6249096581
C                0.1248214573        0.4998965148        0.8751327332
C                0.1249418894        0.7500144577        0.1249589734
C                0.1249078204        0.7500823981        0.3749469798
C                0.1251412125        0.7498105363        0.6248886803
C                0.1250561511        0.7499125103        0.8748697000
C                0.3749416389        0.0000500082        0.1249576889
C                0.3749510911        0.0000039876        0.3749931441
C                0.3749624082       -0.0000929649        0.6250205608
C                0.3749579548       -0.0001429983        0.8750118601
C                0.3749711447        0.2500363749        0.1250762142
C                0.3751825409        0.2502478642        0.3753713440
C                0.3749229205        0.2496215274        0.6253237172
C                0.3749157705        0.2497537262        0.8752362855
C                0.3749874156        0.5000595077        0.1250250484
C                0.3759846354        0.5012220669        0.3754516356
C                0.3760753235        0.4983432265        0.6243876202
C                0.3750496396        0.4998976361        0.8749279345
C                0.3749253377        0.7501846921        0.1247738420
C                0.3748999781        0.7503773241        0.3746677919
C                0.3755848003        0.7492946075        0.6246584749
C                0.3750266711        0.7498641288        0.8748373488
C                0.6249714273       -0.0000120462        0.1250185219
C                0.6249792223        0.0000092273        0.3750038120
C                0.6249836561       -0.0000461647        0.6250245269
C                0.6249742301       -0.0000556564        0.8750112997
C                0.6249569457        0.2499401475        0.1249915857
C                0.6249477063        0.2498804011        0.3750350869
C                0.6246419601        0.2501479458        0.6248891060
C                0.6249566407        0.2500528154        0.8749841131
C                0.6249239147        0.5000076536        0.1250384313
C                0.6242559592        0.4997023775        0.3753571292
C                0.6241435620        0.5016867386        0.6244532902
C                0.6249518244        0.4999714279        0.8750005439
C                0.6249401773        0.7500003449        0.1249487256
C                0.6247616131        0.7495555294        0.3754280595
C                0.6250665926        0.7502050510        0.6250783718
C                0.6249971762        0.7500200720        0.8750272571
C                0.8749503521       -0.0000169783        0.1250259702
C                0.8749457199       -0.0000256983        0.3750230417
C                0.8749589736       -0.0000311799        0.6250026062
C                0.8749627804       -0.0000179957        0.8749926921
C                0.8749584221        0.2499837910        0.1250403539
C                0.8750071496        0.2499455883        0.3750379855
C                0.8747983114        0.2501257520        0.6250231792
C                0.8749065990        0.2499775610        0.8749828471
C                0.8750145610        0.4999828401        0.1249624128
C                0.8748489725        0.5000052347        0.3750996624
C                0.8749064176        0.4999952451        0.6249802859
C                0.8749686914        0.4999846621        0.8750000581
C                0.8749029732        0.7499826582        0.1250503642
C                0.8748600593        0.7499288219        0.3750393270
C                0.8750353915        0.7500135125        0.6250058361
C                0.8750034922        0.7499866047        0.8749894102
C                0.1249559413        0.1249835279        0.0000358262
C                0.1249966294        0.1250720459        0.2500417918
C                0.1247946516        0.1248198545        0.5000789860
C                0.1249421271        0.1249295031        0.7500437390
C                0.1249117336        0.3749782714        0.0000528309
C                0.1250695722        0.3750750456        0.2501258160
C                0.1251717080        0.3750498147        0.5000754922
C                0.1249081202        0.3749179949        0.7501114679
C                0.1249595114        0.6249709663       -0.0000901748
C                0.1248983094        0.6250352926        0.2498946694
C                0.1252012605        0.6248807444        0.4999212874
C                0.1251413067        0.6248594201        0.7498400461
C                0.1249713657        0.8749484814       -0.0000469624
C                0.1249314796        0.8750056587        0.2499562389
C                0.1248212170        0.8751032228        0.4999262795
C                0.1250560682        0.8748402898        0.7499418329
C                0.3749417596        0.1249281161        0.0000791453
C                0.3749710409        0.1250468012        0.2500655914
C                0.3749874046        0.1249951647        0.5000890339
C                0.3749256527        0.1247442595        0.7502139072
C                0.3749524305        0.3749645556        0.0000334173
C                0.3751828602        0.3753421170        0.2502777850
C                0.3759846213        0.3754226517        0.5012504032
C                0.3749002523        0.3746388168        0.7504063122
C                0.3749610129        0.6249919648       -0.0000636106
C                0.3749226859        0.6252946404        0.2496507293
C                0.3760749546        0.6243593740        0.4983711527
C                0.3755847878        0.6246296736        0.7493239440
C                0.3749578389        0.8749822236       -0.0001138662
C                0.3749154471        0.8752067453        0.2497828358
C                0.3750495614        0.8748983527        0.4999270468
C                0.3750267725        0.8748081205        0.7498933325
C                0.6249714254        0.1249890794        0.0000170299
C                0.6249569770        0.1249617773        0.2499695489
C                0.6249240586        0.1250083074        0.5000373889
C                0.6249401452        0.1249188932        0.7500300578
C                0.6249781997        0.3749748640        0.0000391007
C                0.6249471917        0.3750059225        0.2499100157
C                0.6242575051        0.3753251133        0.4997342270
C                0.6247613249        0.3753993343        0.7495849411
C                0.6249845621        0.6249955299       -0.0000162680
C                0.6246421078        0.6248592705        0.2501780971
C                0.6241432776        0.6244241107        0.5017151185
C                0.6250669094        0.6250496564        0.7502340533
C                0.6249742093        0.8749817504       -0.0000265493
C                0.6249567032        0.8749545140        0.2500822810
C                0.6249518175        0.8749706742        0.5000009598
C                0.6249971962        0.8749975421        0.7500494767
C                0.8749502434        0.1249966275        0.0000119584
C                0.8749585137        0.1250106126        0.2500132055
C                0.8750148171        0.1249324608        0.5000127377
C                0.8749028972        0.1250209409        0.7500121093
C                0.8749454664        0.3749938178        0.0000034918
C                0.8750070016        0.3750086602        0.2499752571
C                0.8748489569        0.3750704723        0.5000350174
C                0.8748604755        0.3750101386        0.7499581513
C                0.8749591075        0.6249732927       -0.0000020080
C                0.8747978860        0.6249938555        0.2501550328
C                0.8749064415        0.6249511028        0.5000249392
C                0.8750354284        0.6249765817        0.7500430428
C                0.8749628657        0.8749632492        0.0000109408
C                0.8749067035        0.8749533713        0.2500068897
C                0.8749686562        0.8749702932        0.5000145071
C                0.8750034561        0.8749596851        0.7500160779
C                0.1874372377        0.0625626929        0.1875222555
C                0.1874110092        0.0624743365        0.4375413582
C                0.1874152445        0.0623635576        0.6875328541
C                0.1874404100        0.0624541967        0.9375050764
C                0.1875269150        0.3125538793        0.1876130103
C                0.1876785486        0.3125592167        0.4376454501
C                0.1874106652        0.3124079026        0.6875774597
C                0.1873886538        0.3124363470        0.9375929670
C                0.1871634880        0.5624767309        0.1871682909
C                0.1877703413        0.5624506601        0.4375020312
C                0.1877498373        0.5623053484        0.6873736528
C                0.1874858078        0.5624251006        0.9374144595
C                0.1874292384        0.8125261861        0.1874403137
C                0.1871752836        0.8128121882        0.4375100397
C                0.1876187658        0.8122957617        0.6873915434
C                0.1874702763        0.8124335229        0.9373879754
C                0.4374553695        0.0625302029        0.1874995037
C                0.4374505062        0.0625017735        0.4375413111
C                0.4374579633        0.0623936684        0.6875685552
C                0.4374872996        0.0623232257        0.9376237121
C                0.4374416984        0.3125772846        0.1875802474
C                0.4376282250        0.3128643224        0.4380673209
C                0.4377702420        0.3110168774        0.6890583714
C                0.4374533574        0.3124156150        0.9375617757
C                0.4374528796        0.5625777290        0.1874509362
C                0.4382810698        0.5615259342        0.6865451607
C                0.4374742087        0.5624429742        0.9374586649
C                0.4375221306        0.8130744210        0.1869182013
C                0.4374630810        0.8125269836        0.4373867380
C                0.4375714677        0.8122710238        0.6873420767
C                0.4374893561        0.8124343650        0.9373839254
C                0.6874811278        0.0624894449        0.1875017811
C                0.6874679604        0.0625024999        0.4375452274
C                0.6874818441        0.0624340128        0.6875526220
C                0.6874666137        0.0624920920        0.9374996620
C                0.6874832816        0.3124869023        0.1874513190
C                0.6880548803        0.3118692639        0.4376707622
C                0.6871419566        0.3126787784        0.6873694527
C                0.6874686514        0.3124742489        0.9375313021
C                0.6874029300        0.5625500587        0.1875080269
C                0.6864825922        0.5619660800        0.4383075609
C                0.6877836060        0.5626608447        0.6879179171
C                0.6874863520        0.5624693296        0.9375040087
C                0.6874169128        0.8124520685        0.1875478959
C                0.6874029992        0.8124313552        0.4375282667
C                0.6875638911        0.8126014566        0.6875787803
C                0.6875068741        0.8125090907        0.9374986805
C                0.9374464346        0.0625110674        0.1875193889
C                0.9374584475        0.0624771746        0.4375439699
C                0.9374263023        0.0624855140        0.6875057906
C                0.9374508917        0.0624867943        0.9375001816
C                0.9374829172        0.3124905500        0.1875221547
C                0.9374380478        0.3125162698        0.4375513598
C                0.9374225252        0.3125113212        0.6875025397
C                0.9374204965        0.3124827847        0.9375028356
C                0.9373853506        0.5624706944        0.1875721304
C                0.9374472311        0.5624763650        0.4375323227
C                0.9374909543        0.5624603084        0.6874885145
C                0.9374458099        0.5624604082        0.9374627429
C                0.9374050725        0.8124837106        0.1875049239
C                0.9374175604        0.8124424694        0.4375290710
C                0.9375196967        0.8124678774        0.6875060759
C                0.9374791136        0.8124692068        0.9374815406
C                0.0624615382        0.0624985637        0.0625275934
C                0.0624637086        0.0625436130        0.3125240674
C                0.0623561392        0.0623848214        0.5624881646
C                0.0624648944        0.0624546274        0.8125075126
C                0.0624633524        0.3124951629        0.0625726795
C                0.0625062564        0.3125236595        0.3125534312
C                0.0625344017        0.3124877257        0.5625126510
C                0.0624109559        0.3124496669        0.8125409535
C                0.0623559893        0.5624586233        0.0624139986
C                0.0625340313        0.5624835952        0.3125165236
C                0.0626216628        0.5624332342        0.5624627087
C                0.0625268249        0.5624239085        0.8124567980
C                0.0624648417        0.8124780724        0.0624837746
C                0.0624106523        0.8125115006        0.3124785478
C                0.0625266747        0.8124270501        0.5624535410
C                0.0625434606        0.8124140645        0.8124437292
C                0.3124366991        0.0625130271        0.0625424534
C                0.3124305472        0.0625104907        0.3125160763
C                0.3124353470        0.0624343847        0.5625256493
C                0.3124274898        0.0623290998        0.8125686076
C                0.3124315027        0.3124873115        0.0625386819
C                0.3127021032        0.3127706654        0.3128006294
C                0.3118903794        0.3116360105        0.5624790989
C                0.3124022341        0.3123245165        0.8127938247
C                0.3124350085        0.5624964670        0.0624637294
C                0.3118900270        0.5624500409        0.3116646900
C                0.3137704543        0.5617629643        0.5617914286
C                0.3126587358        0.5622545316        0.8122629618
C                0.3124272309        0.8125389408        0.0623582782
C                0.3124019212        0.8127645020        0.3123533977
C                0.3126586039        0.8122335271        0.5622838312
C                0.3125249160        0.8123213161        0.8123507515
C                0.5624484179        0.0624552329        0.0624845371
C                0.5624384720        0.0625248427        0.3125157308
C                0.5624494469        0.0624732056        0.5625417890
C                0.5624514721        0.0623892970        0.8125906634
C                0.5624383275        0.3124866178        0.0625545215
C                0.5623601786        0.3119876528        0.3120171704
C                0.5619191324        0.3127085044        0.5626274780
C                0.5623297470        0.3124581236        0.8124986266