&CONTROL
calculation = 'scf'
restart_mode = 'from_scratch'
prefix = 'pwscf'
pseudo_dir = './'
outdir = './'
wf_collect = .TRUE.
tprnfor = .TRUE.
verbosity = 'high'
forc_conv_thr = 0.000039
/
&SYSTEM
ibrav = 0
nat = 511
ntyp = 2
ecutwfc = 80
tot_charge = -1
nspin = 2
tot_magnetization = 2
nbnd = 1032
/
&ELECTRONS
electron_maxstep = 600
conv_thr = 1.0d-10
mixing_mode = 'plain'
mixing_beta = 0.7
diagonalization = 'david'
diago_full_acc = .TRUE.
startingpot = 'atomic'
startingwfc = 'atomic+random'
/
&IONS
ion_dynamics='bfgs'
ion_positions='default'
/
ATOMIC_SPECIES
C  12.011   C_ONCV_PBE-1.2.upf
N  14.0067  N_ONCV_PBE-1.2.upf
CELL_PARAMETERS angstrom
14.272  0.0000  0.0000
0.0000  14.272  0.0000
0.0000  0.0000  14.272
K_POINTS gamma
ATOMIC_POSITIONS crystal
C   -0.000032634100   -0.000023890900    0.000000313900
C   -0.000050727800    0.000016001900    0.250013255100
C   -0.000133854000   -0.000047197700    0.500007914300
C   -0.000021838300   -0.000067208600    0.749994078800
C   -0.000051786600    0.249989305700    0.000041687800
C    0.000012055300    0.250032325800    0.250057384600
C   -0.000043060300    0.250040388800    0.500054962100
C   -0.000123041300    0.249957376700    0.750036097900
C   -0.000133956300    0.499983421900   -0.000018422400
C   -0.000043589600    0.500028698300    0.250068378100
C    0.000039221700    0.499984693200    0.500012623400
C    0.000003976400    0.499944756300    0.749951572700
C   -0.000021287900    0.749969837800   -0.000039380500
C   -0.000122188100    0.750008872300    0.249985482100
C    0.000003935500    0.749923842300    0.499971254100
C    0.000070550800    0.749911567700    0.749938452900
C    0.249948454200   -0.000046011800   -0.000015326000
C    0.249911228300    0.000098658300    0.249967058100
C    0.249963531400   -0.000062525500    0.500006411400
C    0.249948276300   -0.000218085800    0.750011709800
C    0.249908930200    0.249935991000    0.000130779600
C    0.250131713800    0.250213647900    0.250244555800
C    0.249574032800    0.249483766900    0.500328845800
C    0.249919632100    0.249818615000    0.750150276900
C    0.249964012400    0.499977444900   -0.000030374600
C    0.249574252600    0.500294572200    0.249516906900
C    0.250871397300    0.499925978100    0.499961469000
C    0.249640938200    0.499597860200    0.750450846200
C    0.249950319000    0.749980314500   -0.000179554200
C    0.249923482500    0.750113448700    0.249857343400
C    0.249640637200    0.750416256900    0.499632204200
C    0.250282182600    0.749634077000    0.749669715000
C    0.499952322000   -0.000052738600   -0.000022260200
C    0.499962692100    0.000047388700    0.249996595200
C    0.499972234300   -0.000025868500    0.500013405700
C    0.499972353800   -0.000130028200    0.750021022400
C    0.499961854800    0.249968824800    0.000075426300
C    0.499944280800    0.249785727300    0.249815509000
C    0.499907872600    0.250196957700    0.500176465100
C    0.499730356100    0.249052345300    0.750957654400
C    0.499972975400    0.499986291000    0.000002496400
C    0.499909504200    0.500141940700    0.250231016800
C    0.500002917700    0.499813758700    0.749796102400
C    0.499973917300    0.749991479800   -0.000096890100
C    0.499733041100    0.750927042700    0.249083651800
C    0.500004174000    0.749765147900    0.499845306300
C    0.500047457300    0.749946671500    0.749976760400
C    0.749979741500   -0.000008916000    0.000014997000
C    0.749975230300   -0.000017576800    0.250016930200
C    0.749965821900   -0.000011947900    0.500019059500
C    0.749989590400   -0.000021260600    0.750018676000
C    0.749974836800    0.249993787900    0.000006492900
C    0.749961995600    0.250004822100    0.250029462500
C    0.750155276400    0.249722052300    0.500029048900
C    0.749783551300    0.250133288800    0.749914298600
C    0.749965926500    0.499995814000    0.000013078200
C    0.750154544200    0.499999170300    0.249753447100
C    0.749574592900    0.500023820800    0.500055676100
C    0.750028811900    0.500013108600    0.750143693700
C    0.749990048400    0.749994817800    0.000004028000
C    0.749781535700    0.749884800900    0.250163511300
C    0.750027871800    0.750115681600    0.500040852600
C    0.750051671200    0.750032353300    0.750057336000
C   -0.000024576400    0.125011585200    0.125035508300
C   -0.000026645500    0.125025208300    0.375031679200
C   -0.000126053600    0.124972654500    0.625042447700
C   -0.000061536800    0.124961973800    0.875018199500
C   -0.000027464400    0.375007475300    0.125051709000
C    0.000006692000    0.375050772000    0.375077976300
C   -0.000022487100    0.374989461000    0.625008357900
C   -0.000114124200    0.374960413500    0.875018006900
C   -0.000125501700    0.625016658300    0.125002149400
C   -0.000022838400    0.624981003600    0.375017374900
C    0.000071055300    0.624913143400    0.624941024900
C    0.000015064600    0.624956293900    0.874931616100
C   -0.000060490100    0.874993174000    0.124987860600
C   -0.000112930700    0.874990293800    0.374986057100
C    0.000014704400    0.874903227400    0.624981176600
C    0.000017026200    0.874937602000    0.874962880100
C    0.249956790400    0.125060153200    0.125089553600
C    0.250006036700    0.125036380300    0.375092839700
C    0.249834466000    0.124737460800    0.625131515500
C    0.249921009600    0.124861362700    0.875081564000
C    0.250006553100    0.375063320700    0.125066257400
C    0.250667356900    0.375451333500    0.375484869100
C    0.249986250200    0.374773181800    0.625195874000
C    0.249827140500    0.374838758600    0.875221993600
C    0.249837770900    0.625096998400    0.124776090600
C    0.249988236100    0.625158366700    0.374811106300
C    0.250827967900    0.624382917100    0.624417328700
C    0.250182205300    0.624864613500    0.874762664900
C    0.249924286000    0.875048816600    0.124897094900
C    0.249830092200    0.875186352500    0.374873365600
C    0.250182416400    0.874726069800    0.624896501100
C    0.250002306000    0.874830723600    0.874864223200
C    0.499973240600    0.124928059200    0.124955142500
C    0.499968172900    0.125041280100    0.375080229100
C    0.499919924400    0.124902039800    0.625088007300
C    0.499897584100    0.124616200900    0.875355986200
C    0.499968643800    0.375052131800    0.125069643000
C    0.499919482500    0.375508829200    0.375543270900
C    0.498457807000    0.374482740100    0.625454519900
C    0.499946891600    0.374943412800    0.875044123800
C    0.499923446900    0.625055299200    0.124936130400
C    0.498459567800    0.625423357900    0.374514440700
C    0.501746651900    0.624051771900    0.624082584900
C    0.500022270300    0.624901366400    0.874929152000
C    0.499899430400    0.875324404200    0.124649191400
C    0.499948458200    0.875014877700    0.374973350100
C    0.500021942300    0.874899106500    0.624929702800
C    0.499997989900    0.874931373700    0.874961199200
C    0.749980744700    0.124997989600    0.125020988300
C    0.750007252000    0.124945865400    0.375023697000
C    0.749895104400    0.124999709700    0.625027686000
C    0.749943435100    0.125020172900    0.874986277000
C    0.750006643100    0.374999676000    0.124971321100
C    0.750020502500    0.374951685500    0.374980872900
C    0.749218054400    0.375507886700    0.624933833000
C    0.749901315200    0.375002197200    0.874972927600
C    0.749895092900    0.625001484100    0.125027439700
C    0.749219130000    0.624902909500    0.375539178300
C    0.750145766100    0.625120947400    0.625150180000
C    0.750032681300    0.625008863900    0.875066441600
C    0.749943344400    0.874961051500    0.125045718700
C    0.749900790200    0.874947156200    0.375027372900
C    0.750031866000    0.875040940900    0.625032518600
C    0.750010859700    0.874990493100    0.875014310500
C    0.124948793000    0.000021386600    0.124998645000
C    0.124898534000    0.000042156400    0.374994343700
C    0.124948742000   -0.000154625000    0.625014706600
C    0.124967212300   -0.000098862400    0.874984945600
C    0.124997522100    0.250039333600    0.125114821200
C    0.125081369800    0.250129674900    0.375118427600
C    0.124866341100    0.249851813500    0.625105044700
C    0.124906011600    0.249923373200    0.875069555400
C    0.124764452200    0.500068870500    0.124821433900
C    0.125185746100    0.500060874500    0.375071581600
C    0.125228346700    0.499862351900    0.624905172200
C    0.124800921200    0.499879057000    0.875149478600
C    0.124919991900    0.750018498900    0.124921605000
C    0.124882771200    0.750086849900    0.374909392900
C    0.125176149200    0.749751214800    0.624856737700
C    0.125074139000    0.749873935600    0.874836974600
C    0.374930649100    0.000075475500    0.124941996300
C    0.374962333700    0.000028017200    0.374999471200
C    0.374972790400   -0.000131843600    0.625013125900
C    0.374946537700   -0.000188645400    0.875020496900
C    0.374968040600    0.250071392100    0.125097903300
C    0.375201176800    0.250300183900    0.375433737000
C    0.374883069100    0.249535566000    0.625413079900
C    0.374883868800    0.249709674100    0.875315358500
C    0.374974119300    0.500081873800    0.125004851700
C    0.376049694700    0.501300854500    0.375466631900
C    0.376162336500    0.498267543700    0.624364171200
C    0.375050456200    0.499866601500    0.874936808300
C    0.374897737300    0.750217215900    0.124694858200
C    0.374868430700    0.750452221700    0.374581440600
C    0.375637038800    0.749221299700    0.624604219900
C    0.375040690900    0.749812006800    0.874794967500
C    0.624989284500   -0.000006356500    0.125011824900
C    0.624970386300    0.000009932000    0.375018031800
C    0.624975895600   -0.000040900100    0.625014650300
C    0.624993110100   -0.000057487800    0.875018732800
C    0.624975237200    0.249962615800    0.124982386900
C    0.624954362500    0.249875601500    0.375029954200
C    0.624589713600    0.250173392700    0.624903890300
C    0.624958799400    0.250068775100    0.874992692600
C    0.624929039400    0.500018708800    0.125029996200
C    0.624183476400    0.499676476500    0.375386872400
C    0.624096979400    0.501752053900    0.624435228100
C    0.624963791600    0.499972510700    0.875010201600
C    0.624941432900    0.749997798600    0.124940887500
C    0.624730474500    0.749524607600    0.375451085900
C    0.625098392000    0.750218988100    0.625097530700
C    0.625021595700    0.750008159800    0.875037532400
C    0.874965294600   -0.000012068700    0.125016521100
C    0.874950387100   -0.000023058400    0.375014448700
C    0.874965395800   -0.000025020700    0.625017138800
C    0.874979023200   -0.000013297100    0.875002983100
C    0.874977610400    0.250005402600    0.125028859300
C    0.875020404000    0.249970044600    0.375031065000
C    0.874769432400    0.250166456500    0.625033991500
C    0.874905776000    0.249998291000    0.874988355600
C    0.875017043400    0.499990894100    0.124959891200
C    0.874835448900    0.500010360500    0.375107335600
C    0.874905208300    0.500000221100    0.624985611700
C    0.874980331200    0.499994935000    0.875007180300
C    0.874901220100    0.749975193000    0.125049030200
C    0.874844310900    0.749910188100    0.375039318600
C    0.875059422400    0.750000226500    0.625017882600
C    0.875025926600    0.749978649900    0.874997371200
C    0.124947464700    0.124971576900    0.000048627700
C    0.124998097100    0.125086680300    0.250065764900
C    0.124762928500    0.124788682800    0.500098596400
C    0.124917278100    0.124888590100    0.750047481100
C    0.124896896200    0.374966871200    0.000072442400
C    0.125081287000    0.375089580500    0.250159274900
C    0.125185979700    0.375040442200    0.500092060400
C    0.124880145600    0.374877048200    0.750119672200
C    0.124950039200    0.624986802300   -0.000120365000
C    0.124868961900    0.625073426900    0.249885567500
C    0.125228074200    0.624872543900    0.499894714400
C    0.125176097800    0.624825079800    0.749784906800
C    0.124968342100    0.874957839300   -0.000069168500
C    0.124909007800    0.875039484900    0.249953471400
C    0.124802755300    0.875116304400    0.499909180200
C    0.125073886900    0.874803867000    0.749903022300
C    0.374929234900    0.124909077200    0.000107871000
C    0.374968237500    0.125069048500    0.250099853100
C    0.374971906900    0.124972303400    0.500114218300
C    0.374894604200    0.124655630000    0.750253155900
C    0.374961839700    0.374970610000    0.000057691900
C    0.375201701100    0.375399411900    0.250334281100
C    0.376048421500    0.375433182200    0.501334388600
C    0.374866332900    0.374547034200    0.750485463600
C    0.374974630200    0.624982793300   -0.000096832300
C    0.374885785200    0.625377963900    0.249571028300
C    0.376163248400    0.624332043400    0.498300333400
C    0.375637138300    0.624571176600    0.749254692000
C    0.374947923100    0.874987571800   -0.000151805400
C    0.374886620000    0.875280055100    0.249745870400
C    0.375050852600    0.874905154700    0.499897908900
C    0.375040316900    0.874759167500    0.749844124300
C    0.624989028200    0.124986548500    0.000018996600
C    0.624975598900    0.124957011100    0.249987462900
C    0.624928049600    0.125002029900    0.500046187000
C    0.624939651900    0.124910505200    0.750027051500
C    0.624970103500    0.374993145400    0.000035448400
C    0.624954727200    0.375000651900    0.249905194800
C    0.624181204800    0.375355004900    0.499708887700
C    0.624729038800    0.375421386600    0.749553715300
C    0.624976865900    0.624989307200   -0.000013799500
C    0.624590885400    0.624870280700    0.250207304300
C    0.624098214100    0.624405668900    0.501781703300
C    0.625098887200    0.625068399500    0.750249292400
C    0.624993401500    0.874992115000   -0.000030008400
C    0.624959537700    0.874965950700    0.250096364600
C    0.624963681700    0.874983475400    0.499998782900
C    0.625021321600    0.875011041800    0.750033377600
C    0.874965046700    0.124993470200    0.000011383200
C    0.874978027600    0.125005305100    0.250028021900
C    0.875018262500    0.124932877100    0.500014998500
C    0.874901792700    0.125021899100    0.750000387100
C    0.874949844100    0.374991916900    0.000001899500
C    0.875020082500    0.375005799900    0.249996211000
C    0.874835908100    0.375077143700    0.500039446900
C    0.874845972700    0.375011682900    0.749937743700
C    0.874965769200    0.624994172500    0.000000893200
C    0.874767325200    0.625005588600    0.250196879100
C    0.874904706600    0.624957802600    0.500028390200
C    0.875059858500    0.624993107400    0.750025849300
C    0.874979185900    0.874979631300    0.000010870100
C    0.874905472000    0.874962601500    0.250023129300
C    0.874979772400    0.874981646900    0.500018327400
C    0.875025602300    0.874972939200    0.750001769100
C    0.187445852300    0.062574543100    0.187531229700
C    0.187415074800    0.062464231000    0.437537032800
C    0.187406192600    0.062295745400    0.687545845900
C    0.187440205300    0.062423248900    0.937526913800
C    0.187548503300    0.312584712300    0.187645293700
C    0.187708522600    0.312575239800    0.437669520300
C    0.187395425200    0.312365351900    0.687615491900
C    0.187377746900    0.312421885700    0.937645782100
C    0.187136204800    0.562525443100    0.187129067600
C    0.187819827300    0.562467456800    0.437468607700
C    0.187806241300    0.562258879300    0.687334622800
C    0.187498274200    0.562427381400    0.937408206100
C    0.187418620900    0.812550505900    0.187413023500
C    0.187160123400    0.812838035400    0.437459160600
C    0.187668117700    0.812227765600    0.687336943700
C    0.187485812400    0.812412526900    0.937360280800
C    0.437448760400    0.062538894400    0.187511845300
C    0.437444390000    0.062495762700    0.437542951700
C    0.437442171800    0.062338159600    0.687580663000
C    0.437471723200    0.062278998000    0.937657144400
C    0.437437100600    0.312614895900    0.187607482400
C    0.437645413800    0.312902324700    0.438128659400
C    0.437724740500    0.310941192600    0.689138078100
C    0.437439228200    0.312405382000    0.937603815500
C    0.437426251500    0.562628252200    0.187426933100
C    0.438331054700    0.561487530400    0.686501221700
C    0.437473461900    0.562440379200    0.937457892200
C    0.437493308600    0.813125045300    0.186867520400
C    0.437449913700    0.812541745400    0.437337333400
C    0.437592654500    0.812220483500    0.687292094300
C    0.437486327800    0.812413962400    0.937364459200
C    0.687482858900    0.062480235300    0.187507768100
C    0.687460586900    0.062494523100    0.437541629800
C    0.687472975400    0.062445601500    0.687551498400
C    0.687471863300    0.062490582400    0.937505187000
C    0.687483568800    0.312497734600    0.187450695200
C    0.688058976100    0.311845283100    0.437670528100
C    0.687094302100    0.312697333200    0.687369611300
C    0.687461566600    0.312485741100    0.937523615300
C    0.687372088200    0.562572745100    0.187523186200
C    0.686397986500    0.561967144200    0.438336578400
C    0.687795267500    0.562693733300    0.687946097800
C    0.687482042000    0.562483348800    0.937516849600
C    0.687399581000    0.812449283700    0.187560065400
C    0.687384501000    0.812423305400    0.437523626300
C    0.687577781800    0.812613672500    0.687581376500
C    0.687510526900    0.812508544700    0.937513557100
C    0.937465640400    0.062505550100    0.187521699900
C    0.937466880700    0.062472050800    0.437535237100
C    0.937426228800    0.062479675800    0.687511336700
C    0.937463400300    0.062480222500    0.937511751900
C    0.937503035600    0.312505950200    0.187533419700
C    0.937446731800    0.312537431800    0.437551169400
C    0.937394714000    0.312522692000    0.687499543700
C    0.937419069600    0.312487892000    0.937509818000
C    0.937379901400    0.562493840000    0.187590727400
C    0.937451284300    0.562485190000    0.437529210000
C    0.937509760300    0.562467161800    0.687471102000
C    0.937459179300    0.562480951300    0.937470467900
C    0.937407221300    0.812486649600    0.187508571700
C    0.937423840900    0.812433351900    0.437516617600
C    0.937549671100    0.812457713100    0.687496758700
C    0.937501043500    0.812472683600    0.937488198300
C    0.062455209400    0.062495059200    0.062520503500
C    0.062459473800    0.062554772800    0.312527709500
C    0.062324702600    0.062353110000    0.562510111500
C    0.062448646000    0.062424292000    0.812513331700
C    0.062458282400    0.312502461900    0.062582632800
C    0.062526042700    0.312546015400    0.312573566200
C    0.062522334400    0.312493536300    0.562535068100
C    0.062376813400    0.312440758900    0.812549526700
C    0.062326040200    0.562482701500    0.062385283800
C    0.062522361700    0.562506485200    0.312523201300
C    0.062639611000    0.562427413400    0.562457739500
C    0.062526281600    0.562424824800    0.812434979500
C    0.062450511700    0.812487119200    0.062453325300
C    0.062379300300    0.812519945800    0.312469800700
C    0.062526726400    0.812404466800    0.562453072900
C    0.062553661900    0.812388628800    0.812417349800
C    0.312437859200    0.062514097000    0.062545519300
C    0.312437328500    0.062543153400    0.312526475500
C    0.312435936600    0.062393527600    0.562550239800
C    0.312420233300    0.062250560800    0.812587271400
C    0.312436774400    0.312497655100    0.062572609200
C    0.312736195500    0.312814754700    0.312849057800
C    0.311869859500    0.311562741600    0.562550456600
C    0.312373789500    0.312255795200    0.812870958400
C    0.312438170500    0.562518905500    0.062428107900
C    0.311870794000    0.562515408800    0.311596674500
C    0.313866584500    0.561728067800    0.561761193300
C    0.312703390200    0.562205656700    0.812225606600
C    0.312423631100    0.812552652000    0.062290195400
C    0.312376979300    0.812834666800    0.312292893700
C    0.312703775600    0.812190734500    0.562238907600
C    0.312560572200    0.812256708400    0.812291492700
C    0.562468174800    0.062448431900    0.062474734200
C    0.562452354300    0.062522962100    0.312529110000
C    0.562455453200    0.062458192800    0.562558493500
C    0.562463810700    0.062355845900    0.812595024800
C    0.562452098900    0.312503203200    0.062549208000
C    0.562365666600    0.311965048200    0.311996136900
C    0.561863290400    0.312723949900    0.562658982600
C    0.562323241200    0.312457361300    0.812505951600
C    0.562457195900    0.562530890200    0.062486862800
C    0.561864821900    0.562624810000    0.312757815800
C    0.562482411700    0.562386996200    0.812523913000
C    0.562465691500    0.812565286100    0.062387578900
C    0.562325147800    0.812477013800    0.312486890600
C    0.562482902300    0.812494957500    0.562415741400
C    0.562533881500    0.812481368600    0.812508493300
C    0.812473938200    0.062493947500    0.062516957600
C    0.812477227000    0.062473336000    0.312517937500
C    0.812458944400    0.062485704400    0.562531670400
C    0.812453780500    0.062504791200    0.812506077300
C    0.812476671200    0.312495411500    0.062497463600
C    0.812549101500    0.312481482800    0.312507586700
C    0.812144730700    0.312731074700    0.562476282300
C    0.812367209800    0.312514792900    0.812457728600
C    0.812458874000    0.562508065200    0.062511641200
C    0.812143825500    0.562445682200    0.312762979100
C    0.812399620300    0.562496877700    0.562525843000
C    0.812545985600    0.562516536700    0.812573915100
C    0.812453919200    0.812482074300    0.062529974700
C    0.812365912700    0.812430634900    0.312541462500
C    0.812545382300    0.812548235700    0.562540786000
C    0.812540945300    0.812506120200    0.812529778500
C    0.062491714900    0.187538316300    0.187564067800
C    0.062466394500    0.187516038100    0.437558617200
C    0.062374810800    0.187427584800    0.687548762200
C    0.062433241000    0.187463157200    0.937544937600
C    0.062466170800    0.437531512200    0.187544868800
C    0.062600837900    0.437515113000    0.437544290900
C    0.062548108900    0.437450315600    0.687481980300
C    0.062328803400    0.437484786800    0.937589123900
C    0.062377039400    0.687520362300    0.187458863300
C    0.062548384700    0.687452276200    0.437479738700
C    0.062603633400    0.687385949900    0.687416220700
C    0.062506025900    0.687447256800    0.937394419700
C    0.062435387400    0.937517932200    0.187489747000
C    0.062330638500    0.937558750100    0.437511972000
C    0.062505499300    0.937362911300    0.687473728500
C    0.062474791400    0.937448300900    0.937474657100
C    0.312486039000    0.187610581200    0.187639618700
C    0.312440903200    0.187499118900    0.437679073000
C    0.312389942500    0.187125881600    0.687710073800
C    0.312401203600    0.187355740700    0.937688052200
C    0.312442432900    0.437645553300    0.187531509000
C    0.313757450700    0.438066264000    0.438099874900
C    0.311870558300    0.437442019400    0.688503946700
C    0.312445985700    0.437428924200    0.937528117400
C    0.312393555700    0.687673114100    0.187165440100
C    0.311871266800    0.688470636900    0.437476409200
C    0.312951699400    0.686989552500    0.687024138300
C    0.312506779900    0.687415131900    0.937339355600
C    0.312404668500    0.937653471600    0.187391380900
C    0.312447098500    0.937496693900    0.437459226800
C    0.312506037700    0.937302172300    0.687445979300
C    0.312455471600    0.937385494800    0.937419302700
C    0.562446719600    0.187356333900    0.187383006400
C    0.562397344300    0.187513453000    0.437641090900
C    0.562352153700    0.187322530500    0.687723817000
C    0.562448828000    0.187438238900    0.937573089700
C    0.562398645500    0.437611124000    0.187542929900
C    0.561669061800    0.437878032500    0.686810795600
C    0.562466732600    0.437448739300    0.937532059200
C    0.562355868900    0.687690265200    0.187356883300
C    0.561671235700    0.686781482000    0.437908450100
C    0.562753625100    0.687723065900    0.687754192700
C    0.562486092100    0.687467855200    0.937460181000
C    0.562450172300    0.937545634400    0.187466290700
C    0.562467188600    0.937505214500    0.437475252100
C    0.562485461100    0.937431616100    0.687494127100
C    0.562487627300    0.937453793800    0.937481852900
C    0.812476287600    0.187503793600    0.187526862300
C    0.812627313900    0.187334560100    0.437560044800
C    0.812340499900    0.187575761200    0.687497258300
C    0.812448043000    0.187495816100    0.937498988800
C    0.812626051200    0.437534159800    0.187362698700
C    0.812322014100    0.437523253700    0.437553668900
C    0.812271256200    0.437579787500    0.687454831400
C    0.812445236100    0.437496412200    0.937490201800
C    0.812339015700    0.687470098400    0.187604861700
C    0.812269997700    0.687425931600    0.437609297000
C    0.812625751300    0.687560458600    0.687586359400
C    0.812513882500    0.687503737900    0.937524880100
C    0.812448282700    0.937474660900    0.187519528300
C    0.812445134600    0.937465336400    0.437519404800
C    0.812513283100    0.937499982400    0.687526631800
C    0.812489264400    0.937491421500    0.937514853000
C    0.187444463100    0.187502788400    0.062604256200
C    0.187548206200    0.187615559700    0.312613338000
C    0.187134884800    0.187093890300    0.562559187800
C    0.187414697800    0.187377695400    0.812583437300
C    0.187415534500    0.437508574900    0.062494902700
C    0.187708378400    0.437636551600    0.312607704800
C    0.187820041700    0.437433304100    0.562502789000
C    0.187158601800    0.437425086900    0.812872867800
C    0.187409337300    0.687514335100    0.062333501300
C    0.187398828300    0.687579469700    0.312402429900
C    0.187806058100    0.687299517300    0.562293292000
C    0.187667840900    0.687304220400    0.812263618300
C    0.187442345200    0.937497218700    0.062454355700
C    0.187381152400    0.937612712500    0.312453518800
C    0.187498761800    0.937374408400    0.562456645800
C    0.187484734200    0.937325668000    0.812442894000
C    0.437448088000    0.187483509300    0.062567298700
C    0.437436542700    0.187577803800    0.312644735300
C    0.437423006100    0.187391929300    0.562663412900
C    0.437490497100    0.186834278800    0.813156817500
C    0.437445329600    0.437514490300    0.062524717300
C    0.437646243600    0.438093550200    0.312937309900
C    0.437448014200    0.437304300500    0.812573327800
C    0.437445418400    0.687548206500    0.062374530000
C    0.437727203900    0.689106244900    0.310973782200
C    0.438331693400    0.686469744100    0.561519417900
C    0.437592524800    0.687261077500    0.812253554700
C    0.437473724400    0.937624083600    0.062314053700
C    0.437441102600    0.937573333400    0.312436092600
C    0.437473176900    0.937427276600    0.562468856900
C    0.437485340800    0.937330294600    0.812444416700
C    0.687482546000    0.187484203500    0.062504237800
C    0.687483820900    0.187424916200    0.312523103700
C    0.687371027600    0.187493547500    0.562601919300
C    0.687399423100    0.187531819700    0.812476731600
C    0.687460755900    0.437517228300    0.062519900500
C    0.688059922300    0.437639951300    0.311875088900
C    0.686396468000    0.438305580500    0.561998141100
C    0.687384688800    0.437496569300    0.812450458100
C    0.687474032600    0.687525847200    0.062472780500
C    0.687094553500    0.687337524100    0.312729851500
C    0.687795378000    0.687916208300    0.562723915600
C    0.687578251400    0.687556048100    0.812640529600
C    0.687472067900    0.937480360800    0.062515653100
C    0.687462031000    0.937498575600    0.312510384400
C    0.687481671800    0.937491366300    0.562507396100
C    0.687510275700    0.937488264000    0.812532855200
C    0.937465078000    0.187498682100    0.062529446400
C    0.937503458800    0.187508437200    0.312529843200
C    0.937381217600    0.187562190700    0.562519408700
C    0.937406609300    0.187482579000    0.812512051300
C    0.937465974200    0.437511919400    0.062498592100
C    0.937446412300    0.437524711200    0.312564932600
C    0.937451537900    0.437501289900    0.562512489100
C    0.937424230700    0.437491358500    0.812460102100
C    0.937426653300    0.687487206300    0.062507008100
C    0.937393559400    0.687472593200    0.312550625500
C    0.937509699800    0.687444344800    0.562493556900
C    0.937549912100    0.687472169000    0.812483774700
C    0.937463975700    0.937488108800    0.062504134500
C    0.937419964100    0.937484001600    0.312511700200
C    0.937458775500    0.937443563100    0.562504459400
C    0.937500686300    0.937463118600    0.812496283300
C    0.568503949600    0.431464154600    0.431495256800
C    0.432801559000    0.430410567100    0.569614320800
C    0.432802670600    0.569583491500    0.430441876600
N    0.566146743000    0.565944755400    0.565974159600
