&CONTROL
calculation = 'scf'
restart_mode = 'from_scratch'
prefix = 'pwscf'
pseudo_dir = './'
outdir = './'
tprnfor = .TRUE.
verbosity = 'high'
forc_conv_thr = 0.000039
/
&SYSTEM
ibrav = 0
nat = 511
ntyp = 2
ecutwfc = 80
tot_charge = -1
nspin = 2
tot_magnetization = 2
occupations = 'from_input'
nbnd = 1032
/
&ELECTRONS
electron_maxstep = 100
conv_thr = 1.0d-10
mixing_mode = 'plain'
mixing_beta = 0.7
diagonalization = 'david'
diago_full_acc = .TRUE.
startingpot = 'atomic'
startingwfc = 'atomic+random'
/
&IONS
ion_dynamics='bfgs'
ion_positions='default'
/
ATOMIC_SPECIES
C  12.011   C_ONCV_PBE-1.2.upf
N  14.0067  N_ONCV_PBE-1.2.upf
CELL_PARAMETERS angstrom
14.272  0.0000  0.0000
0.0000  14.272  0.0000
0.0000  0.0000  14.272
K_POINTS gamma
OCCUPATIONS
1 1 1 1 1 1 1 1 1 1
1 1 1 1 1 1 1 1 1 1
1 1 1 1 1 1 1 1 1 1
1 1 1 1 1 1 1 1 1 1
1 1 1 1 1 1 1 1 1 1
1 1 1 1 1 1 1 1 1 1
1 1 1 1 1 1 1 1 1 1
1 1 1 1 1 1 1 1 1 1
1 1 1 1 1 1 1 1 1 1
1 1 1 1 1 1 1 1 1 1
1 1 1 1 1 1 1 1 1 1
1 1 1 1 1 1 1 1 1 1
1 1 1 1 1 1 1 1 1 1
1 1 1 1 1 1 1 1 1 1
1 1 1 1 1 1 1 1 1 1
1 1 1 1 1 1 1 1 1 1
1 1 1 1 1 1 1 1 1 1
1 1 1 1 1 1 1 1 1 1
1 1 1 1 1 1 1 1 1 1
1 1 1 1 1 1 1 1 1 1
1 1 1 1 1 1 1 1 1 1
1 1 1 1 1 1 1 1 1 1
1 1 1 1 1 1 1 1 1 1
1 1 1 1 1 1 1 1 1 1
1 1 1 1 1 1 1 1 1 1
1 1 1 1 1 1 1 1 1 1
1 1 1 1 1 1 1 1 1 1
1 1 1 1 1 1 1 1 1 1
1 1 1 1 1 1 1 1 1 1
1 1 1 1 1 1 1 1 1 1
1 1 1 1 1 1 1 1 1 1
1 1 1 1 1 1 1 1 1 1
1 1 1 1 1 1 1 1 1 1
1 1 1 1 1 1 1 1 1 1
1 1 1 1 1 1 1 1 1 1
1 1 1 1 1 1 1 1 1 1
1 1 1 1 1 1 1 1 1 1
1 1 1 1 1 1 1 1 1 1
1 1 1 1 1 1 1 1 1 1
1 1 1 1 1 1 1 1 1 1
1 1 1 1 1 1 1 1 1 1
1 1 1 1 1 1 1 1 1 1
1 1 1 1 1 1 1 1 1 1
1 1 1 1 1 1 1 1 1 1
1 1 1 1 1 1 1 1 1 1
1 1 1 1 1 1 1 1 1 1
1 1 1 1 1 1 1 1 1 1
1 1 1 1 1 1 1 1 1 1
1 1 1 1 1 1 1 1 1 1
1 1 1 1 1 1 1 1 1 1
1 1 1 1 1 1 1 1 1 1
1 1 1 1 1 1 1 1 1 1
1 1 1 1 1 1 1 1 1 1
1 1 1 1 1 1 1 1 1 1
1 1 1 1 1 1 1 1 1 1
1 1 1 1 1 1 1 1 1 1
1 1 1 1 1 1 1 1 1 1
1 1 1 1 1 1 1 1 1 1
1 1 1 1 1 1 1 1 1 1
1 1 1 1 1 1 1 1 1 1
1 1 1 1 1 1 1 1 1 1
1 1 1 1 1 1 1 1 1 1
1 1 1 1 1 1 1 1 1 1
1 1 1 1 1 1 1 1 1 1
1 1 1 1 1 1 1 1 1 1
1 1 1 1 1 1 1 1 1 1
1 1 1 1 1 1 1 1 1 1
1 1 1 1 1 1 1 1 1 1
1 1 1 1 1 1 1 1 1 1
1 1 1 1 1 1 1 1 1 1
1 1 1 1 1 1 1 1 1 1
1 1 1 1 1 1 1 1 1 1
1 1 1 1 1 1 1 1 1 1
1 1 1 1 1 1 1 1 1 1
1 1 1 1 1 1 1 1 1 1
1 1 1 1 1 1 1 1 1 1
1 1 1 1 1 1 1 1 1 1
1 1 1 1 1 1 1 1 1 1
1 1 1 1 1 1 1 1 1 1
1 1 1 1 1 1 1 1 1 1
1 1 1 1 1 1 1 1 1 1
1 1 1 1 1 1 1 1 1 1
1 1 1 1 1 1 1 1 1 1
1 1 1 1 1 1 1 1 1 1
1 1 1 1 1 1 1 1 1 1
1 1 1 1 1 1 1 1 1 1
1 1 1 1 1 1 1 1 1 1
1 1 1 1 1 1 1 1 1 1
1 1 1 1 1 1 1 1 1 1
1 1 1 1 1 1 1 1 1 1
1 1 1 1 1 1 1 1 1 1
1 1 1 1 1 1 1 1 1 1
1 1 1 1 1 1 1 1 1 1
1 1 1 1 1 1 1 1 1 1
1 1 1 1 1 1 1 1 1 1
1 1 1 1 1 1 1 1 1 1
1 1 1 1 1 1 1 1 1 1
1 1 1 1 1 1 1 1 1 1
1 1 1 1 1 1 1 1 1 1
1 1 1 1 1 1 1 1 1 1
1 1 1 1 1 1 1 1 1 1
1 1 1 1 1 1 1 1 1 1
1 1 1 1 0 0 0 0 0 0
0 0
1 1 1 1 1 1 1 1 1 1
1 1 1 1 1 1 1 1 1 1
1 1 1 1 1 1 1 1 1 1
1 1 1 1 1 1 1 1 1 1
1 1 1 1 1 1 1 1 1 1
1 1 1 1 1 1 1 1 1 1
1 1 1 1 1 1 1 1 1 1
1 1 1 1 1 1 1 1 1 1
1 1 1 1 1 1 1 1 1 1
1 1 1 1 1 1 1 1 1 1
1 1 1 1 1 1 1 1 1 1
1 1 1 1 1 1 1 1 1 1
1 1 1 1 1 1 1 1 1 1
1 1 1 1 1 1 1 1 1 1
1 1 1 1 1 1 1 1 1 1
1 1 1 1 1 1 1 1 1 1
1 1 1 1 1 1 1 1 1 1
1 1 1 1 1 1 1 1 1 1
1 1 1 1 1 1 1 1 1 1
1 1 1 1 1 1 1 1 1 1
1 1 1 1 1 1 1 1 1 1
1 1 1 1 1 1 1 1 1 1
1 1 1 1 1 1 1 1 1 1
1 1 1 1 1 1 1 1 1 1
1 1 1 1 1 1 1 1 1 1
1 1 1 1 1 1 1 1 1 1
1 1 1 1 1 1 1 1 1 1
1 1 1 1 1 1 1 1 1 1
1 1 1 1 1 1 1 1 1 1
1 1 1 1 1 1 1 1 1 1
1 1 1 1 1 1 1 1 1 1
1 1 1 1 1 1 1 1 1 1
1 1 1 1 1 1 1 1 1 1
1 1 1 1 1 1 1 1 1 1
1 1 1 1 1 1 1 1 1 1
1 1 1 1 1 1 1 1 1 1
1 1 1 1 1 1 1 1 1 1
1 1 1 1 1 1 1 1 1 1
1 1 1 1 1 1 1 1 1 1
1 1 1 1 1 1 1 1 1 1
1 1 1 1 1 1 1 1 1 1
1 1 1 1 1 1 1 1 1 1
1 1 1 1 1 1 1 1 1 1
1 1 1 1 1 1 1 1 1 1
1 1 1 1 1 1 1 1 1 1
1 1 1 1 1 1 1 1 1 1
1 1 1 1 1 1 1 1 1 1
1 1 1 1 1 1 1 1 1 1
1 1 1 1 1 1 1 1 1 1
1 1 1 1 1 1 1 1 1 1
1 1 1 1 1 1 1 1 1 1
1 1 1 1 1 1 1 1 1 1
1 1 1 1 1 1 1 1 1 1
1 1 1 1 1 1 1 1 1 1
1 1 1 1 1 1 1 1 1 1
1 1 1 1 1 1 1 1 1 1
1 1 1 1 1 1 1 1 1 1
1 1 1 1 1 1 1 1 1 1
1 1 1 1 1 1 1 1 1 1
1 1 1 1 1 1 1 1 1 1
1 1 1 1 1 1 1 1 1 1
1 1 1 1 1 1 1 1 1 1
1 1 1 1 1 1 1 1 1 1
1 1 1 1 1 1 1 1 1 1
1 1 1 1 1 1 1 1 1 1
1 1 1 1 1 1 1 1 1 1
1 1 1 1 1 1 1 1 1 1
1 1 1 1 1 1 1 1 1 1
1 1 1 1 1 1 1 1 1 1
1 1 1 1 1 1 1 1 1 1
1 1 1 1 1 1 1 1 1 1
1 1 1 1 1 1 1 1 1 1
1 1 1 1 1 1 1 1 1 1
1 1 1 1 1 1 1 1 1 1
1 1 1 1 1 1 1 1 1 1
1 1 1 1 1 1 1 1 1 1
1 1 1 1 1 1 1 1 1 1
1 1 1 1 1 1 1 1 1 1
1 1 1 1 1 1 1 1 1 1
1 1 1 1 1 1 1 1 1 1
1 1 1 1 1 1 1 1 1 1
1 1 1 1 1 1 1 1 1 1
1 1 1 1 1 1 1 1 1 1
1 1 1 1 1 1 1 1 1 1
1 1 1 1 1 1 1 1 1 1
1 1 1 1 1 1 1 1 1 1
1 1 1 1 1 1 1 1 1 1
1 1 1 1 1 1 1 1 1 1
1 1 1 1 1 1 1 1 1 1
1 1 1 1 1 1 1 1 1 1
1 1 1 1 1 1 1 1 1 1
1 1 1 1 1 1 1 1 1 1
1 1 1 1 1 1 1 1 1 1
1 1 1 1 1 1 1 1 1 1
1 1 1 1 1 1 1 1 1 1
1 1 1 1 1 1 1 1 1 1
1 1 1 1 1 1 1 1 1 1
1 1 1 1 1 1 1 1 1 1
1 1 1 1 1 1 1 1 1 1
1 1 1 1 1 1 1 1 1 1
1 1 1 1 1 1 1 1 1 1
1 1 1 1 1 1 1 1 1 1
1 0 1 0 0 0 0 0 0 0
0 0
ATOMIC_POSITIONS crystal
C   -0.000036884090   -0.000027266770   -0.000000642390
C   -0.000050434440    0.000022966430    0.250012991920
C   -0.000147022610   -0.000051702080    0.500007985970
C   -0.000031551690   -0.000081460420    0.749993748640
C   -0.000051599220    0.249986649080    0.000051221620
C    0.000023961070    0.250039576620    0.250067140400
C   -0.000033554750    0.250040146500    0.500063842800
C   -0.000127493990    0.249946172470    0.750045656470
C   -0.000147135140    0.499981045930   -0.000020048850
C   -0.000034136080    0.500034953820    0.250070934130
C    0.000047095400    0.499982823010    0.500013545730
C   -0.000003759470    0.499934983300    0.749948592550
C   -0.000030946650    0.749967083340   -0.000050849810
C   -0.000126554870    0.750015707110    0.249977087710
C   -0.000003803260    0.749918088710    0.499964129680
C    0.000052681000    0.749895781640    0.749925354960
C    0.249941711830   -0.000045248240   -0.000011492860
C    0.249906368970    0.000119223070    0.249967781550
C    0.249955603060   -0.000054969170    0.500010436330
C    0.249936161830   -0.000232044540    0.750018828260
C    0.249903841160    0.249933608740    0.000154557200
C    0.250149941770    0.250240070180    0.250274067870
C    0.249582083980    0.249482791590    0.500367473700
C    0.249910946370    0.249799828360    0.750178112830
C    0.249956131860    0.499978575480   -0.000019600680
C    0.249582326960    0.500329773540    0.249519247390
C    0.250927028710    0.499941570730    0.499980611920
C    0.249605821730    0.499571392300    0.750500618400
C    0.249938408600    0.749984293830   -0.000189658380
C    0.249915182610    0.750137601010    0.249842430300
C    0.249605491730    0.750462569870    0.499609169500
C    0.250270778250    0.749621730070    0.749660931770
C    0.499946834040   -0.000057796770   -0.000024270130
C    0.499962344000    0.000065936650    0.249991973240
C    0.499969116520   -0.000024507120    0.500014406760
C    0.499965338750   -0.000151166330    0.750024987320
C    0.499961424270    0.249961425900    0.000096779610
C    0.499944451600    0.249814948330    0.249847708800
C    0.499921654080    0.250185143950    0.500217106630
C    0.499717135490    0.248958369640    0.751058108120
C    0.499969932230    0.499984580790    0.000006696970
C    0.499923449840    0.500179129390    0.250222611560
C    0.499986643920    0.499778572520    0.749822805680
C    0.499967057900    0.749992490560   -0.000114712820
C    0.499720088990    0.751024434050    0.248992808090
C    0.499988026350    0.749788755630    0.499813273380
C    0.500011484680    0.749889715610    0.749922811900
C    0.749977977110   -0.000017338060    0.000008965440
C    0.749978700610   -0.000011484040    0.250011680520
C    0.749964266470   -0.000021278100    0.500016715320
C    0.749981607010   -0.000048312340    0.750013600670
C    0.749978268760    0.249986224690    0.000014992930
C    0.749971003000    0.250004656270    0.250031760010
C    0.750175492620    0.249695047140    0.500045698670
C    0.749786152200    0.250106994770    0.749929974230
C    0.749964382130    0.499991146370    0.000006251610
C    0.750174687200    0.500012832410    0.249729582120
C    0.749579146630    0.500009640130    0.500044679260
C    0.749980070250    0.499973703910    0.750106439330
C    0.749982110310    0.749987356950   -0.000020495780
C    0.749783934340    0.749897526160    0.250140239420
C    0.749979035740    0.750075626420    0.500004220810
C    0.750022882040    0.750001633050    0.750029112520
C   -0.000021867000    0.125014712170    0.125041026580
C   -0.000020508060    0.125031699200    0.375037404700
C   -0.000130661150    0.124961711160    0.625048771730
C   -0.000065922720    0.124952618840    0.875023982490
C   -0.000021408950    0.375010782210    0.125060850070
C    0.000022342890    0.375056048810    0.375085972340
C   -0.000018922740    0.374983184390    0.625013933490
C   -0.000122714280    0.374953136000    0.875025160350
C   -0.000130053460    0.625020403190    0.124994155750
C   -0.000019307970    0.624983843260    0.375013888980
C    0.000064919070    0.624902196520    0.624932865470
C   -0.000000845610    0.624947838820    0.874918570160
C   -0.000064771250    0.874996453740    0.124981093520
C   -0.000121400630    0.874994675340    0.374981342360
C   -0.000001241330    0.874887342390    0.624975209390
C    0.000005438000    0.874927209230    0.874955014340
C    0.249956340330    0.125072144250    0.125104484290
C    0.250012788280    0.125054110860    0.375108926380
C    0.249824681630    0.124722289170    0.625151196410
C    0.249912737730    0.124849537300    0.875098171970
C    0.250013357020    0.375076457680    0.125086976770
C    0.250732611440    0.375497768230    0.375534657290
C    0.249989044210    0.374762571490    0.625235038560
C    0.249810000130    0.374824490200    0.875254480780
C    0.249828317320    0.625113228500    0.124764784550
C    0.249991229900    0.625193780230    0.374804288640
C    0.250858326020    0.624363392650    0.624401245110
C    0.250166769730    0.624857304630    0.874768411830
C    0.249916341570    0.875062149130    0.124888843620
C    0.249813247900    0.875215274470    0.374862556200
C    0.250167002840    0.874728156220    0.624892379490
C    0.249990426670    0.874822606240    0.874859456600
C    0.499972974090    0.124940765020    0.124970557150
C    0.499973227760    0.125049477350    0.375093558010
C    0.499918827780    0.124880386810    0.625109485040
C    0.499890681510    0.124576080870    0.875394000120
C    0.499973746750    0.375062651480    0.125080678840
C    0.499889453420    0.375554926720    0.375592813490
C    0.498381597330    0.374327554730    0.625648623720
C    0.499941549740    0.374920023360    0.875075101010
C    0.499922702030    0.625073505830    0.124917889670
C    0.498383535710    0.625614344720    0.374362426190
C    0.501608783530    0.623962029290    0.623995920690
C    0.500008713750    0.624886404520    0.874922949360
C    0.499892711240    0.875359259220    0.124612371620
C    0.499943272300    0.875042928700    0.374952954090
C    0.500008353250    0.874889898710    0.624917573560
C    0.499985085510    0.874905997560    0.874938805410
C    0.749984581460    0.124997539940    0.125022838210
C    0.750014121580    0.124942208860    0.375027393930
C    0.749898317100    0.124977330130    0.625037440520
C    0.749942980440    0.125001153630    0.874992198810
C    0.750013452790    0.375000971530    0.124970210830
C    0.750045539320    0.374944179610    0.374976285650
C    0.749224214530    0.375471876400    0.624947881720
C    0.749900876690    0.374986093540    0.874980616070
C    0.749898304450    0.625008617730    0.125007833830
C    0.749225397490    0.624913866370    0.375506296860
C    0.750093190370    0.625081060290    0.625113214550
C    0.750009093980    0.624988074530    0.875038164810
C    0.749942879870    0.874964450560    0.125029253810
C    0.749900298890    0.874952267130    0.375013786010
C    0.750008197250    0.875010114740    0.625014093500
C    0.749998763650    0.874970024720    0.874996222660
C    0.124945641150    0.000028691500    0.125000477450
C    0.124892358470    0.000055172030    0.374996335350
C    0.124935408510   -0.000162091490    0.625018255720
C    0.124958381590   -0.000106981980    0.874987403300
C    0.125003250140    0.250047138350    0.125132278350
C    0.125103600110    0.250148791500    0.375137073470
C    0.124864058700    0.249843763580    0.625122078930
C    0.124898651590    0.249915337890    0.875084962410
C    0.124760798920    0.500078169280    0.124823478190
C    0.125208392750    0.500075201920    0.375084046960
C    0.125239326500    0.499855499430    0.624908366530
C    0.124779274000    0.499870303900    0.875166841560
C    0.124911743770    0.750026110880    0.124913517780
C    0.124872807540    0.750101678970    0.374901659420
C    0.125171416080    0.749740037840    0.624849396290
C    0.125060516740    0.749866530990    0.874827965970
C    0.374926271390    0.000091823840    0.124940166700
C    0.374958764680    0.000045797810    0.374999616730
C    0.374964845730   -0.000139217590    0.625019177790
C    0.374937870820   -0.000204688600    0.875027899550
C    0.374971647870    0.250084680520    0.125121786560
C    0.375222593860    0.250328720540    0.375478411180
C    0.374883445720    0.249493291690    0.625473965050
C    0.374874109620    0.249680787990    0.875357182070
C    0.374976837430    0.500098300950    0.125009409010
C    0.376149877670    0.501408960820    0.375508510390
C    0.376175108470    0.498172311200    0.624449240850
C    0.375037768800    0.499853232830    0.874957053660
C    0.374888837260    0.750245081870    0.124666103140
C    0.374852598530    0.750520428440    0.374536910920
C    0.375613942710    0.749227783460    0.624585306110
C    0.375028435010    0.749802637750    0.874784860260
C    0.624990290310    0.000001004660    0.125004798800
C    0.624972163130    0.000016735870    0.375014611870
C    0.624971222340   -0.000058234170    0.625013853410
C    0.624988335640   -0.000080654050    0.875014398530
C    0.624979289880    0.249965646410    0.124991709280
C    0.624969375410    0.249867330540    0.375045020530
C    0.624590868600    0.250138291300    0.624936463370
C    0.624960908020    0.250041996910    0.875021442700
C    0.624934619750    0.500027491520    0.125021140950
C    0.624250476770    0.499722136180    0.375322099760
C    0.624011755140    0.501614729430    0.624383828710
C    0.624955070840    0.499953980890    0.875012103920
C    0.624942560110    0.750011280220    0.124912627210
C    0.624724185970    0.749561422150    0.375409395720
C    0.625056247050    0.750173735070    0.625055300220
C    0.625002077410    0.749982120830    0.875006364590
C    0.874965787300   -0.000011508510    0.125012619670
C    0.874950779070   -0.000022543100    0.375012572820
C    0.874955728730   -0.000044940940    0.625014767810
C    0.874972772750   -0.000027917630    0.874999127540
C    0.874983822710    0.250005570330    0.125033783260
C    0.875032732920    0.249967195340    0.375036025740
C    0.874775856780    0.250149446450    0.625043620330
C    0.874905165180    0.249986010970    0.874996002340
C    0.875021163740    0.499993324210    0.124954140600
C    0.874845559720    0.500011367430    0.375100337340
C    0.874896612290    0.499984462030    0.624979073250
C    0.874959851410    0.499981727220    0.874989384820
C    0.874898636720    0.749977914130    0.125032895960
C    0.874839138700    0.749910636580    0.375026926080
C    0.875030445290    0.749973394000    0.624997994200
C    0.875009001470    0.749963333070    0.874977589330
C    0.124944179620    0.124970703140    0.000058657210
C    0.125003882940    0.125101323760    0.250076211480
C    0.124759122150    0.124787450580    0.500110865570
C    0.124908757990    0.124877200090    0.750057992300
C    0.124890556490    0.374966118100    0.000088487730
C    0.125103509630    0.375105343460    0.250181351000
C    0.125208649010    0.375049793220    0.500109505810
C    0.124869917780    0.374866080950    0.750137784400
C    0.124936835330    0.624987561990   -0.000124404090
C    0.124866943280    0.625087299350    0.249880893480
C    0.125239027850    0.624872475100    0.499891097280
C    0.125171358540    0.624814573500    0.749777099440
C    0.124959624070    0.874957585470   -0.000074318390
C    0.124901948010    0.875051883960    0.249948445410
C    0.124781292610    0.875130348740    0.499903437320
C    0.125060240130    0.874791547210    0.749898526160
C    0.374924716670    0.124903955490    0.000127459390
C    0.374971863560    0.125090046180    0.250115986520
C    0.374974402890    0.124973602880    0.500133879100
C    0.374885391250    0.124622949720    0.750284616470
C    0.374958221880    0.374967870510    0.000078441680
C    0.375223171690    0.375440654470    0.250366228860
C    0.376148477150    0.375471714920    0.501445850630
C    0.374850290050    0.374499063880    0.750556995830
C    0.374966869010    0.624985812930   -0.000100702060
C    0.374886433930    0.625435337050    0.249532302820
C    0.376176111960    0.624413899670    0.498208379770
C    0.375614051760    0.624548960280    0.749264514590
C    0.374939394460    0.874991681340   -0.000164163800
C    0.374877135040    0.875318347330    0.249720603920
C    0.375038205840    0.874922233300    0.499887669370
C    0.375028024010    0.874745479560    0.749837966500
C    0.624990009280    0.124976994860    0.000028893370
C    0.624979686850    0.124963794900    0.249992977720
C    0.624933530670    0.124990376020    0.500057717240
C    0.624940602010    0.124879205280    0.750043459210
C    0.624971853250    0.374987236930    0.000044805910
C    0.624969777080    0.375012788200    0.249899884470
C    0.624247977510    0.375287045210    0.499757787500
C    0.624722607200    0.375376726790    0.749593440820
C    0.624972289670    0.624985976400   -0.000028422510
C    0.624592157080    0.624899492010    0.250175596460
C    0.624013113610    0.624351316290    0.501647341170
C    0.625056792070    0.625023257800    0.750207068100
C    0.624988655480    0.874985119450   -0.000050426910
C    0.624961718950    0.874992025810    0.250072345760
C    0.624954949650    0.874982704700    0.499982879510
C    0.625001776300    0.874977225830    0.750009859310
C    0.874965514610    0.124987264980    0.000014287880
C    0.874984281630    0.125007873740    0.250030450160
C    0.875022504250    0.124924424790    0.500019837850
C    0.874899266980    0.125003052250    0.750005628040
C    0.874950181770    0.374987789440    0.000004910690
C    0.875032379670    0.375008235130    0.249995977980
C    0.874846064640    0.375067127150    0.500043361270
C    0.874840966280    0.374996527910    0.749940948040
C    0.874956139570    0.624989505280   -0.000016435450
C    0.874773539160    0.625012376840    0.250182910910
C    0.874896060820    0.624948483940    0.500015446740
C    0.875030924900    0.624970742380    0.750001578580
C    0.874972951320    0.874973441460   -0.000001335110
C    0.874904830680    0.874967672130    0.250013331700
C    0.874959236930    0.874961297580    0.500007457660
C    0.875008644940    0.874950715230    0.749988763390
C    0.187444252860    0.062588681380    0.187538167600
C    0.187412737870    0.062474715210    0.437545323400
C    0.187393877260    0.062282253640    0.687555229680
C    0.187432342220    0.062417856530    0.937535132300
C    0.187561493750    0.312599984840    0.187667963090
C    0.187744666410    0.312598153220    0.437699620780
C    0.187390434370    0.312352684860    0.687638956990
C    0.187367601930    0.312415459330    0.937669714670
C    0.187131944620    0.562540836240    0.187124093800
C    0.187844997580    0.562481726880    0.437471971640
C    0.187813797770    0.562244187910    0.687335818360
C    0.187483449540    0.562424021830    0.937415901260
C    0.187409644060    0.812564896390    0.187403486820
C    0.187131106620    0.812871373330    0.437452744570
C    0.187656495000    0.812218889670    0.687330592910
C    0.187473133140    0.812409026990    0.937352136000
C    0.437448223560    0.062556845850    0.187519185220
C    0.437443093050    0.062502846350    0.437551511620
C    0.437434393940    0.062318415880    0.687595585570
C    0.437467191440    0.062259625010    0.937676161530
C    0.437443958110    0.312641775030    0.187633522990
C    0.437674220480    0.312927830260    0.438205792540
C    0.437732238670    0.310808545110    0.689291993030
C    0.437432771020    0.312390330310    0.937632529020
C    0.437425378720    0.562658601820    0.187412814860
C    0.438285369930    0.561442086520    0.686533211400
C    0.437463199320    0.562433366780    0.937462618790
C    0.437490306770    0.813187084820    0.186809242920
C    0.437434739740    0.812577997760    0.437310901810
C    0.437570405270    0.812205926220    0.687270376190
C    0.437475669580    0.812406884810    0.937349838730
C    0.687485942880    0.062485193330    0.187505609810
C    0.687463500760    0.062490416030    0.437543798340
C    0.687470978900    0.062420993830    0.687557355300
C    0.687469616080    0.062475165390    0.937506000220
C    0.687493840880    0.312498305830    0.187451231370
C    0.688104980930    0.311803044260    0.437672606330
C    0.687091791110    0.312663156480    0.687394631330
C    0.687463282310    0.312471231070    0.937537422280
C    0.687377030500    0.562589439590    0.187502437760
C    0.686419653580    0.561969661700    0.438291447000
C    0.687715170050    0.562664172040    0.687881082780
C    0.687472916900    0.562471335080    0.937506569630
C    0.687399493240    0.812462559880    0.187537637370
C    0.687372023860    0.812429030010    0.437494475950
C    0.687549324440    0.812574951820    0.687553278610
C    0.687498667360    0.812492726140    0.937487595950
C    0.937467731960    0.062508387750    0.187521984880
C    0.937466871960    0.062471982690    0.437537056830
C    0.937419147200    0.062463167930    0.687513037820
C    0.937459073560    0.062471396770    0.937512259720
C    0.937512694120    0.312507929480    0.187538841210
C    0.937459737750    0.312535585290    0.437555906040
C    0.937395631850    0.312511877560    0.687505057220
C    0.937416941380    0.312480931320    0.937516763320
C    0.937384766890    0.562497125790    0.187585147760
C    0.937455351100    0.562482658260    0.437524523530
C    0.937498772500    0.562453529380    0.687460883000
C    0.937443096780    0.562474726680    0.937455512840
C    0.937403771550    0.812490561560    0.187498168270
C    0.937415159900    0.812428212560    0.437508989660
C    0.937527322450    0.812436811280    0.687483523340
C    0.937488853280    0.812463534370    0.937474722760
C    0.062452392690    0.062496226870    0.062524215500
C    0.062461018960    0.062565846260    0.312531797670
C    0.062314371360    0.062345618200    0.562514876740
C    0.062439978400    0.062413188000    0.812517611870
C    0.062459708020    0.312504026810    0.062596492660
C    0.062544352300    0.312556773970    0.312587077850
C    0.062532760720    0.312492657780    0.562544927280
C    0.062368421680    0.312431507650    0.812561219790
C    0.062315843220    0.562484725940    0.062381009980
C    0.062532791650    0.562513486090    0.312525288580
C    0.062646551720    0.562422722720    0.562456080030
C    0.062515975930    0.562416100690    0.812431925220
C    0.062442031070    0.812488776020    0.062445125030
C    0.062371158270    0.812528678700    0.312463453530
C    0.062516465810    0.812398361150    0.562447172800
C    0.062537751020    0.812377043150    0.812408635850
C    0.312432963440    0.062521103880    0.062555668410
C    0.312437217580    0.062563172770    0.312535279580
C    0.312429296910    0.062391070440    0.562561616350
C    0.312408928290    0.062229542520    0.812602738660
C    0.312436607470    0.312503578040    0.062595575050
C    0.312766367000    0.312852783620    0.312890516630
C    0.311882791810    0.311544961920    0.562602731600
C    0.312358167000    0.312228374770    0.812920470550
C    0.312431754400    0.562527149020    0.062429111770
C    0.311883820260    0.562564179220    0.311582290110
C    0.313939068560    0.561697554840    0.561733991490
C    0.312679649030    0.562187153000    0.812245766020
C    0.312412666470    0.812564656220    0.062273141880
C    0.312361677080    0.812880547690    0.312269183020
C    0.312680072970    0.812207406510    0.562223727090
C    0.312547880030    0.812245036090    0.812283298220
C    0.562468745570    0.062450472790    0.062479405220
C    0.562453940800    0.062533448890    0.312531787750
C    0.562453563800    0.062446988400    0.562566909530
C    0.562458983180    0.062328494960    0.812607974950
C    0.562453660460    0.312503291270    0.062562321580
C    0.562399461600    0.311987499280    0.312021697950
C    0.561846299500    0.312682169800    0.562721561920
C    0.562316494250    0.312409017940    0.812554146020
C    0.562455481170    0.562536547000    0.062478528200
C    0.561847982550    0.562683971260    0.312719424890
C    0.562461989780    0.562357034830    0.812523876070
C    0.562461051960    0.812575263080    0.062363402260
C    0.562318590710    0.812522314040    0.312441500070
C    0.562462529040    0.812492024920    0.562388652650
C    0.562516518080    0.812438150540    0.812467986810
C    0.812474278320    0.062489809450    0.062515119560
C    0.812481689420    0.062474595740    0.312516402210
C    0.812458286910    0.062471339410    0.562533629850
C    0.812448709920    0.062483992850    0.812506236200
C    0.812481078440    0.312491625210    0.062501135500
C    0.812566427860    0.312476630730    0.312505343820
C    0.812156803630    0.312710102880    0.562484839760
C    0.812366587930    0.312497524400    0.812466157910
C    0.812458209670    0.562507664730    0.062499870490
C    0.812155807310    0.562451180550    0.312745197620
C    0.812387155500    0.562477904180    0.562509765310
C    0.812509229740    0.562497441400    0.812539951090
C    0.812448862190    0.812479833300    0.062511694300
C    0.812365160920    0.812436354640    0.312526860060
C    0.812508565710    0.812511704050    0.562524114630
C    0.812520911760    0.812482604650    0.812508627880
C    0.062497570960    0.187545962560    0.187574288710
C    0.062477097260    0.187523797200    0.437569065740
C    0.062369226880    0.187417409080    0.687558438010
C    0.062428848240    0.187457589510    0.937554958180
C    0.062476851190    0.437539251540    0.187555510170
C    0.062618432270    0.437520890050    0.437552984640
C    0.062549362610    0.437443354820    0.687487034200
C    0.062314411850    0.437481563100    0.937601338380
C    0.062371679440    0.687527196320    0.187451815730
C    0.062549666890    0.687454359290    0.437475718930
C    0.062594831220    0.687375252950    0.687408549430
C    0.062492154040    0.687442549930    0.937384156390
C    0.062431210280    0.937525250940    0.187486837690
C    0.062316431060    0.937567926400    0.437511466120
C    0.062491574680    0.937349497050    0.687471669000
C    0.062465423160    0.937442463520    0.937471455940
C    0.312491442910    0.187629779940    0.187661720790
C    0.312450382460    0.187514321240    0.437710129150
C    0.312379733020    0.187093935510    0.687742997780
C    0.312392707820    0.187343395410    0.937716212080
C    0.312452064230    0.437673257880    0.187549952450
C    0.313868469660    0.438137157100    0.438174128790
C    0.311830847580    0.437421246160    0.688594447890
C    0.312434993180    0.437421438420    0.937549261410
C    0.312383709040    0.687702340510    0.187137452560
C    0.311831627430    0.688557806310    0.437459073940
C    0.312942958300    0.686976567550    0.687014610330
C    0.312494372750    0.687412204440    0.937334736910
C    0.312396519810    0.937678171920    0.187382600130
C    0.312436218160    0.937514692860    0.437454769680
C    0.312493556030    0.937293833880    0.687446136180
C    0.312445267780    0.937380007900    0.937417197290
C    0.562454238890    0.187374085630    0.187403425980
C    0.562404602430    0.187507982750    0.437661702960
C    0.562346787550    0.187281714390    0.687763932680
C    0.562447611590    0.187417410610    0.937597273120
C    0.562406033050    0.437628740470    0.187540410540
C    0.561641771060    0.437787046210    0.686873743290
C    0.562462354220    0.437436006960    0.937544202590
C    0.562350874070    0.687727025800    0.187319504670
C    0.561644160750    0.686841497830    0.437820505070
C    0.562730051220    0.687635748390    0.687669986670
C    0.562474350610    0.687457312220    0.937444234270
C    0.562449089520    0.937567071690    0.187448267590
C    0.562462854620    0.937514671120    0.437465169540
C    0.562473656110    0.937412811780    0.687486210110
C    0.562482068680    0.937437171630    0.937468036540
C    0.812483258060    0.187503332730    0.187528707300
C    0.812639581380    0.187322985590    0.437563716990
C    0.812342897700    0.187554902450    0.687506939070
C    0.812448095600    0.187484137410    0.937504714300
C    0.812638192510    0.437535244590    0.187353938350
C    0.812336295730    0.437515415540    0.437548871460
C    0.812261777390    0.437556254270    0.687449387900
C    0.812441286080    0.437486764120    0.937488154690
C    0.812341264780    0.687477063580    0.187586913200
C    0.812260392340    0.687417598420    0.437588714020
C    0.812588238900    0.687530270220    0.687558760500
C    0.812498597420    0.687491200860    0.937500051450
C    0.812448359070    0.937477953910    0.187510219830
C    0.812441174530    0.937460802550    0.437512054480
C    0.812497937880    0.937472663880    0.687516383350
C    0.812481772950    0.937478268880    0.937504042730
C    0.187442724140    0.187506882370    0.062621365890
C    0.187561167540    0.187635256190    0.312631471410
C    0.187130492120    0.187085397170    0.562577955210
C    0.187405327550    0.187364624810    0.812601123530