&CONTROL
calculation = 'scf'
restart_mode = 'from_scratch'
prefix = 'pwscf'
pseudo_dir = './'
outdir = './'
wf_collect = .TRUE.
tprnfor = .TRUE.
verbosity = 'high'
forc_conv_thr = 0.000039
/
&SYSTEM
ibrav = 0
nat = 511
ntyp = 2
ecutwfc = 80
tot_charge = -1
nspin = 2
tot_magnetization = 2
occupations = 'from_input'
nbnd = 1032
/
&ELECTRONS
electron_maxstep = 100
conv_thr = 1.0d-10
mixing_mode = 'plain'
mixing_beta = 0.7
diagonalization = 'david'
diago_full_acc = .TRUE.
startingpot = 'atomic'
startingwfc = 'atomic+random'
/
&IONS
ion_dynamics='bfgs'
ion_positions='default'
/
ATOMIC_SPECIES
C  12.011   C_ONCV_PBE-1.2.upf
N  14.0067  N_ONCV_PBE-1.2.upf
CELL_PARAMETERS angstrom
14.272  0.0000  0.0000
0.0000  14.272  0.0000
0.0000  0.0000  14.272
K_POINTS gamma
OCCUPATIONS
1 1 1 1 1 1 1 1 1 1
1 1 1 1 1 1 1 1 1 1
1 1 1 1 1 1 1 1 1 1
1 1 1 1 1 1 1 1 1 1
1 1 1 1 1 1 1 1 1 1
1 1 1 1 1 1 1 1 1 1
1 1 1 1 1 1 1 1 1 1
1 1 1 1 1 1 1 1 1 1
1 1 1 1 1 1 1 1 1 1
1 1 1 1 1 1 1 1 1 1
1 1 1 1 1 1 1 1 1 1
1 1 1 1 1 1 1 1 1 1
1 1 1 1 1 1 1 1 1 1
1 1 1 1 1 1 1 1 1 1
1 1 1 1 1 1 1 1 1 1
1 1 1 1 1 1 1 1 1 1
1 1 1 1 1 1 1 1 1 1
1 1 1 1 1 1 1 1 1 1
1 1 1 1 1 1 1 1 1 1
1 1 1 1 1 1 1 1 1 1
1 1 1 1 1 1 1 1 1 1
1 1 1 1 1 1 1 1 1 1
1 1 1 1 1 1 1 1 1 1
1 1 1 1 1 1 1 1 1 1
1 1 1 1 1 1 1 1 1 1
1 1 1 1 1 1 1 1 1 1
1 1 1 1 1 1 1 1 1 1
1 1 1 1 1 1 1 1 1 1
1 1 1 1 1 1 1 1 1 1
1 1 1 1 1 1 1 1 1 1
1 1 1 1 1 1 1 1 1 1
1 1 1 1 1 1 1 1 1 1
1 1 1 1 1 1 1 1 1 1
1 1 1 1 1 1 1 1 1 1
1 1 1 1 1 1 1 1 1 1
1 1 1 1 1 1 1 1 1 1
1 1 1 1 1 1 1 1 1 1
1 1 1 1 1 1 1 1 1 1
1 1 1 1 1 1 1 1 1 1
1 1 1 1 1 1 1 1 1 1
1 1 1 1 1 1 1 1 1 1
1 1 1 1 1 1 1 1 1 1
1 1 1 1 1 1 1 1 1 1
1 1 1 1 1 1 1 1 1 1
1 1 1 1 1 1 1 1 1 1
1 1 1 1 1 1 1 1 1 1
1 1 1 1 1 1 1 1 1 1
1 1 1 1 1 1 1 1 1 1
1 1 1 1 1 1 1 1 1 1
1 1 1 1 1 1 1 1 1 1
1 1 1 1 1 1 1 1 1 1
1 1 1 1 1 1 1 1 1 1
1 1 1 1 1 1 1 1 1 1
1 1 1 1 1 1 1 1 1 1
1 1 1 1 1 1 1 1 1 1
1 1 1 1 1 1 1 1 1 1
1 1 1 1 1 1 1 1 1 1
1 1 1 1 1 1 1 1 1 1
1 1 1 1 1 1 1 1 1 1
1 1 1 1 1 1 1 1 1 1
1 1 1 1 1 1 1 1 1 1
1 1 1 1 1 1 1 1 1 1
1 1 1 1 1 1 1 1 1 1
1 1 1 1 1 1 1 1 1 1
1 1 1 1 1 1 1 1 1 1
1 1 1 1 1 1 1 1 1 1
1 1 1 1 1 1 1 1 1 1
1 1 1 1 1 1 1 1 1 1
1 1 1 1 1 1 1 1 1 1
1 1 1 1 1 1 1 1 1 1
1 1 1 1 1 1 1 1 1 1
1 1 1 1 1 1 1 1 1 1
1 1 1 1 1 1 1 1 1 1
1 1 1 1 1 1 1 1 1 1
1 1 1 1 1 1 1 1 1 1
1 1 1 1 1 1 1 1 1 1
1 1 1 1 1 1 1 1 1 1
1 1 1 1 1 1 1 1 1 1
1 1 1 1 1 1 1 1 1 1
1 1 1 1 1 1 1 1 1 1
1 1 1 1 1 1 1 1 1 1
1 1 1 1 1 1 1 1 1 1
1 1 1 1 1 1 1 1 1 1
1 1 1 1 1 1 1 1 1 1
1 1 1 1 1 1 1 1 1 1
1 1 1 1 1 1 1 1 1 1
1 1 1 1 1 1 1 1 1 1
1 1 1 1 1 1 1 1 1 1
1 1 1 1 1 1 1 1 1 1
1 1 1 1 1 1 1 1 1 1
1 1 1 1 1 1 1 1 1 1
1 1 1 1 1 1 1 1 1 1
1 1 1 1 1 1 1 1 1 1
1 1 1 1 1 1 1 1 1 1
1 1 1 1 1 1 1 1 1 1
1 1 1 1 1 1 1 1 1 1
1 1 1 1 1 1 1 1 1 1
1 1 1 1 1 1 1 1 1 1
1 1 1 1 1 1 1 1 1 1
1 1 1 1 1 1 1 1 1 1
1 1 1 1 1 1 1 1 1 1
1 1 1 1 1 1 1 1 1 1
1 1 1 1 0 0 0 0 0 0
0 0
1 1 1 1 1 1 1 1 1 1
1 1 1 1 1 1 1 1 1 1
1 1 1 1 1 1 1 1 1 1
1 1 1 1 1 1 1 1 1 1
1 1 1 1 1 1 1 1 1 1
1 1 1 1 1 1 1 1 1 1
1 1 1 1 1 1 1 1 1 1
1 1 1 1 1 1 1 1 1 1
1 1 1 1 1 1 1 1 1 1
1 1 1 1 1 1 1 1 1 1
1 1 1 1 1 1 1 1 1 1
1 1 1 1 1 1 1 1 1 1
1 1 1 1 1 1 1 1 1 1
1 1 1 1 1 1 1 1 1 1
1 1 1 1 1 1 1 1 1 1
1 1 1 1 1 1 1 1 1 1
1 1 1 1 1 1 1 1 1 1
1 1 1 1 1 1 1 1 1 1
1 1 1 1 1 1 1 1 1 1
1 1 1 1 1 1 1 1 1 1
1 1 1 1 1 1 1 1 1 1
1 1 1 1 1 1 1 1 1 1
1 1 1 1 1 1 1 1 1 1
1 1 1 1 1 1 1 1 1 1
1 1 1 1 1 1 1 1 1 1
1 1 1 1 1 1 1 1 1 1
1 1 1 1 1 1 1 1 1 1
1 1 1 1 1 1 1 1 1 1
1 1 1 1 1 1 1 1 1 1
1 1 1 1 1 1 1 1 1 1
1 1 1 1 1 1 1 1 1 1
1 1 1 1 1 1 1 1 1 1
1 1 1 1 1 1 1 1 1 1
1 1 1 1 1 1 1 1 1 1
1 1 1 1 1 1 1 1 1 1
1 1 1 1 1 1 1 1 1 1
1 1 1 1 1 1 1 1 1 1
1 1 1 1 1 1 1 1 1 1
1 1 1 1 1 1 1 1 1 1
1 1 1 1 1 1 1 1 1 1
1 1 1 1 1 1 1 1 1 1
1 1 1 1 1 1 1 1 1 1
1 1 1 1 1 1 1 1 1 1
1 1 1 1 1 1 1 1 1 1
1 1 1 1 1 1 1 1 1 1
1 1 1 1 1 1 1 1 1 1
1 1 1 1 1 1 1 1 1 1
1 1 1 1 1 1 1 1 1 1
1 1 1 1 1 1 1 1 1 1
1 1 1 1 1 1 1 1 1 1
1 1 1 1 1 1 1 1 1 1
1 1 1 1 1 1 1 1 1 1
1 1 1 1 1 1 1 1 1 1
1 1 1 1 1 1 1 1 1 1
1 1 1 1 1 1 1 1 1 1
1 1 1 1 1 1 1 1 1 1
1 1 1 1 1 1 1 1 1 1
1 1 1 1 1 1 1 1 1 1
1 1 1 1 1 1 1 1 1 1
1 1 1 1 1 1 1 1 1 1
1 1 1 1 1 1 1 1 1 1
1 1 1 1 1 1 1 1 1 1
1 1 1 1 1 1 1 1 1 1
1 1 1 1 1 1 1 1 1 1
1 1 1 1 1 1 1 1 1 1
1 1 1 1 1 1 1 1 1 1
1 1 1 1 1 1 1 1 1 1
1 1 1 1 1 1 1 1 1 1
1 1 1 1 1 1 1 1 1 1
1 1 1 1 1 1 1 1 1 1
1 1 1 1 1 1 1 1 1 1
1 1 1 1 1 1 1 1 1 1
1 1 1 1 1 1 1 1 1 1
1 1 1 1 1 1 1 1 1 1
1 1 1 1 1 1 1 1 1 1
1 1 1 1 1 1 1 1 1 1
1 1 1 1 1 1 1 1 1 1
1 1 1 1 1 1 1 1 1 1
1 1 1 1 1 1 1 1 1 1
1 1 1 1 1 1 1 1 1 1
1 1 1 1 1 1 1 1 1 1
1 1 1 1 1 1 1 1 1 1
1 1 1 1 1 1 1 1 1 1
1 1 1 1 1 1 1 1 1 1
1 1 1 1 1 1 1 1 1 1
1 1 1 1 1 1 1 1 1 1
1 1 1 1 1 1 1 1 1 1
1 1 1 1 1 1 1 1 1 1
1 1 1 1 1 1 1 1 1 1
1 1 1 1 1 1 1 1 1 1
1 1 1 1 1 1 1 1 1 1
1 1 1 1 1 1 1 1 1 1
1 1 1 1 1 1 1 1 1 1
1 1 1 1 1 1 1 1 1 1
1 1 1 1 1 1 1 1 1 1
1 1 1 1 1 1 1 1 1 1
1 1 1 1 1 1 1 1 1 1
1 1 1 1 1 1 1 1 1 1
1 1 1 1 1 1 1 1 1 1
1 1 1 1 1 1 1 1 1 1
1 1 1 1 1 1 1 1 1 1
1 1 1 1 1 1 1 1 1 1
1 0 1 0 0 0 0 0 0 0
0 0
ATOMIC_POSITIONS crystal
C    0.000009865800    0.000009867800    0.000009876800
C   -0.000053661400   -0.000053643400    0.250015886900
C   -0.000002167900   -0.000002153900    0.500007197600
C    0.000075295600    0.000075309600    0.749997380400
C   -0.000053660400    0.250015871900   -0.000053650400
C   -0.000107002400    0.249959817600    0.249959826600
C   -0.000138115800    0.250042811800    0.499966155100
C   -0.000078514400    0.250069419000    0.749940512200
C   -0.000002167900    0.500007181600   -0.000002157900
C   -0.000138124800    0.499966143100    0.250042817800
C   -0.000039515300    0.500003395100    0.500003400100
C    0.000081335100    0.500042486300    0.749981374200
C    0.000075299600    0.749997382400    0.000075312600
C   -0.000078520400    0.749940524200    0.250069426000
C    0.000081323100    0.749981378200    0.500042498300
C    0.000249248800    0.750069428300    0.750069432300
C    0.250015877900   -0.000053647400   -0.000053657400
C    0.249959821600   -0.000106989400    0.249959823600
C    0.250042814800   -0.000138088800    0.499966162100
C    0.250069421000   -0.000078498400    0.749940525200
C    0.249959820600    0.249959813600   -0.000106996400
C    0.249949434100    0.249949425100    0.249949435100
C    0.249493521000    0.249493520000    0.499942566800
C    0.250006489400    0.250006481400    0.749871917600
C    0.250042817800    0.499966139100   -0.000138113800
C    0.249493509000    0.499942558800    0.249493502000
C    0.250315083200    0.499770051800    0.499770039800
C    0.249992102900    0.499862539200    0.749953124200
C    0.250069423000    0.749940521200   -0.000078512400
C    0.250006481400    0.749871925600    0.250006474400
C    0.249992091900    0.749953127200    0.499862551200
C    0.250396226100    0.749757546300    0.749757547300
C    0.500007201600   -0.000002156900   -0.000002160900
C    0.499966173100   -0.000138090800    0.250042814800
C    0.500003412100   -0.000039482300    0.500003395100
C    0.500042504300    0.000081353100    0.749981373200
C    0.499966160100    0.250042813800   -0.000138106800
C    0.499942572800    0.249493517000    0.249493511000
C    0.499770057800    0.250315095200    0.499770049800
C    0.499862562200    0.249992101900    0.749953117200
C    0.500003407100    0.500003393100   -0.000039509300
C    0.499770047800    0.499770053800    0.250315069200
C    0.500165655500    0.500165620500    0.749529069600
C    0.500042511300    0.749981372200    0.000081337100
C    0.499862562200    0.749953129200    0.249992088900
C    0.500165650500    0.749529070600    0.500165635500
C    0.500407183500    0.750516230400    0.750516245400
C    0.749997385400    0.000075304600    0.000075312600
C    0.749940527200   -0.000078504400    0.250069427000
C    0.749981376200    0.000081354100    0.500042501300
C    0.750069424300    0.000249256800    0.750069429300
C    0.749940517200    0.250069420000   -0.000078507400
C    0.749871921600    0.250006480400    0.250006487400
C    0.749953114200    0.249992103900    0.499862551200
C    0.749757542300    0.250396229100    0.749757542300
C    0.749981370200    0.500042490300    0.000081344100
C    0.749953114200    0.499862549200    0.249992096900
C    0.749529055600    0.500165627500    0.500165644500
C    0.750516228400    0.500407155500    0.750516237400
C    0.750069429300    0.750069426300    0.000249265800
C    0.749757549300    0.749757548300    0.250396230100
C    0.750516232400    0.750516233400    0.500407170500
C    0.750339562800    0.750339555800    0.750339570800
C   -0.000051670400    0.124980315500    0.124980325500
C   -0.000088019900    0.124960299300    0.374974424200
C   -0.000079978100    0.125082087900    0.624979207400
C   -0.000017677600    0.125055523400    0.874960369600
C   -0.000088018900    0.374974406200    0.124960298300
C   -0.000149816900    0.374998003900    0.374998015900
C   -0.000058130700    0.375052227100    0.624952602000
C   -0.000028223400    0.375033188500    0.874946472400
C   -0.000079984100    0.624979209400    0.125082085900
C   -0.000058142700    0.624952607000    0.375052234100
C    0.000132417600    0.625022612200    0.625022619200
C    0.000174166700    0.625040844700    0.875062075500
C   -0.000017678600    0.874960376600    0.125055531400
C   -0.000028231400    0.874946478400    0.375033204500
C    0.000174161700    0.875062077500    0.625040848700
C    0.000132908200    0.875041529700    0.875041537700
C    0.249961291100    0.124940242700    0.124940246700
C    0.249938520900    0.124859074700    0.374931972900
C    0.249932309700    0.124889177100    0.624934706400
C    0.250003728300    0.124979616700    0.874915484300
C    0.249938513900    0.374931950900    0.124859063700
C    0.250014811500    0.374986986200    0.374986987200
C    0.249958310100    0.374879284900    0.624804228400
C    0.249998544200    0.374981442600    0.874897121800
C    0.249932306700    0.624934697400    0.124889151100
C    0.249958298100    0.624804231400    0.374879282900
C    0.250524386700    0.624578161600    0.624578164600
C    0.250336561000    0.624937702200    0.874705195600
C    0.250003730300    0.874915491300    0.124979607700
C    0.249998535200    0.874897132800    0.374981459600
C    0.250336552000    0.874705205600    0.624937717200
C    0.250121099300    0.874911897200    0.874911889200
C    0.499975905700    0.124801001000    0.124800996000
C    0.499917624300    0.124959307600    0.374946940000
C    0.499930890600    0.125118569700    0.624873229900
C    0.499966610000    0.125017401200    0.874975847000
C    0.499917614300    0.374946935000    0.124959284600
C    0.500219773300    0.375047854000    0.375047845000
C    0.499219903700    0.376034593800    0.623513481700
C    0.500000310200    0.375177307200    0.874734351700
C    0.499930895600    0.624873232900    0.125118537700
C    0.499219888700    0.623513489700    0.376034585800
C    0.503125335600    0.624949198000    0.624949227000
C    0.500157835800    0.625050985200    0.874991178400
C    0.499966622000    0.874975854000    0.125017389200
C    0.500000317200    0.874734367700    0.375177310200
C    0.500157832800    0.874991184400    0.625050995200
C    0.500127033800    0.875185135100    0.875185137100
C    0.749942377100    0.125002486200    0.125002489200
C    0.749938556200    0.124982430800    0.374986727700
C    0.749862977400    0.125223505400    0.624930140800
C    0.749947981700    0.125210365600    0.874927058900
C    0.749938546200    0.374986720700    0.124982423800
C    0.749770134300    0.375026744400    0.375026745400
C    0.749156453100    0.375867989700    0.624793345800
C    0.749905700300    0.375163233800    0.874896042900
C    0.749862977400    0.624930147800    0.125223498400
C    0.749156455100    0.624793340800    0.375867992700
C    0.750671523400    0.625519818500    0.625519834500
C    0.750268554500    0.625216757600    0.875349209500
C    0.749947989700    0.874927060900    0.125210367600
C    0.749905703300    0.874896046900    0.375163241800
C    0.750268553500    0.875349202500    0.625216769600
C    0.750131820200    0.875195176900    0.875195188900
C    0.124980311500   -0.000051662400    0.124980320500
C    0.124960289300   -0.000087999900    0.374974427200
C    0.125082076900   -0.000079960100    0.624979215400
C    0.125055519400   -0.000017666600    0.874960368600
C    0.124940241700    0.249961286100    0.124940249700
C    0.124859066700    0.249938508900    0.374931968900
C    0.124889165100    0.249932312700    0.624934702400
C    0.124979611700    0.250003726300    0.874915485300
C    0.124800985000    0.499975882700    0.124800991000
C    0.124959279600    0.499917600300    0.374946928000
C    0.125118548700    0.499930876600    0.624873228900
C    0.125017393200    0.499966588000    0.874975849000
C    0.125002473200    0.749942379100    0.125002477200
C    0.124982407800    0.749938559200    0.374986727700
C    0.125223480400    0.749862984400    0.624930151800
C    0.125210361600    0.749947981700    0.874927060900
C    0.374974426200   -0.000088007900    0.124960292300
C    0.374998023900   -0.000149788900    0.374998015900
C    0.375052237100   -0.000058103700    0.624952607000
C    0.375033206500   -0.000028213400    0.874946470400
C    0.374931967900    0.249938507900    0.124859070700
C    0.374987006200    0.250014817500    0.374986995200
C    0.374879302900    0.249958309100    0.624804228400
C    0.374981460600    0.249998535200    0.874897122800
C    0.374946938000    0.499917602300    0.124959278600
C    0.375047865000    0.500219791300    0.375047847000
C    0.376034616800    0.499219868700    0.623513474700
C    0.375177330200    0.500000288200    0.874734354700
C    0.374986737700    0.749938556200    0.124982408800
C    0.375026752400    0.749770154300    0.375026737400
C    0.375867999700    0.749156462100    0.624793357800
C    0.375163249800    0.749905697300    0.874896039900
C    0.624979226400   -0.000079968100    0.125082085900
C    0.624952618000   -0.000058106700    0.375052231100
C    0.625022628200    0.000132440600    0.625022619200
C    0.625040854700    0.000174174700    0.875062075500
C    0.624934710400    0.249932309700    0.124889163100
C    0.624804233400    0.249958311100    0.374879290900
C    0.624578163600    0.250524406700    0.624578159600
C    0.624937713200    0.250336557000    0.874705191600
C    0.624873235900    0.499930881600    0.125118548700
C    0.623513472700    0.499219879700    0.376034598800
C    0.624949222000    0.503125298600    0.624949222000
C    0.625050999200    0.500157808800    0.874991178400
C    0.624930160800    0.749862982400    0.125223490400
C    0.624793359800    0.749156462100    0.375867987700
C    0.625519841500    0.750671518400    0.625519835500
C    0.625216778600    0.750268549500    0.875349210500
C    0.874960367600   -0.000017670600    0.125055535400
C    0.874946467400   -0.000028211400    0.375033207500
C    0.875062066500    0.000174181700    0.625040848700
C    0.875041527700    0.000132908200    0.875041538700
C    0.874915487300    0.250003725300    0.124979619700
C    0.874897114800    0.249998537200    0.374981457600
C    0.874705188600    0.250336557000    0.624937703200
C    0.874911884200    0.250121091300    0.874911888200
C    0.874975840000    0.499966593000    0.125017397200
C    0.874734340700    0.500000291200    0.375177318200
C    0.874991168400    0.500157811800    0.625050996200
C    0.875185129100    0.500127012800    0.875185135100
C    0.874927053900    0.749947981700    0.125210372600
C    0.874896032900    0.749905703300    0.375163243800
C    0.875349193500    0.750268551500    0.625216766600
C    0.875195177900    0.750131818200    0.875195189900
C    0.124980315500    0.124980314500   -0.000051667400
C    0.124940238700    0.124940245700    0.249961299100
C    0.124800992000    0.124801005000    0.499975904700
C    0.125002479200    0.125002490200    0.749942369100
C    0.124960293300    0.374974402200   -0.000088010900
C    0.124859060700    0.374931950900    0.249938513900
C    0.124959286600    0.374946932000    0.499917606300
C    0.124982423800    0.374986720700    0.749938550200
C    0.125082077900    0.624979205400   -0.000079974100
C    0.124889148100    0.624934702400    0.249932307700
C    0.125118537700    0.624873231900    0.499930885600
C    0.125223490400    0.624930142800    0.749862980400
C    0.125055522400    0.874960377600   -0.000017669600
C    0.124979605700    0.874915494300    0.250003731300
C    0.125017382200    0.874975861000    0.499966609000
C    0.125210354600    0.874927064900    0.749947983700
C    0.374974417200    0.124960294300   -0.000088012900
C    0.374931976900    0.124859071700    0.249938518900
C    0.374946947000    0.124959308600    0.499917610300
C    0.374986733700    0.124982432800    0.749938550200
C    0.374998017900    0.374998004900   -0.000149805900
C    0.374986995200    0.374986986200    0.250014803500
C    0.375047865000    0.375047855000    0.500219768300
C    0.375026761400    0.375026737400    0.749770141300
C    0.375052242100    0.624952597000   -0.000058134700
C    0.374879297900    0.624804232400    0.249958283100
C    0.376034612800    0.623513480700    0.499219869700
C    0.375868003700    0.624793339800    0.749156466100
C    0.375033209500    0.874946476400   -0.000028221400
C    0.374981469600    0.874897132800    0.249998535200
C    0.375177320200    0.874734368700    0.500000304200
C    0.375163245800    0.874896046900    0.749905702300
C    0.624979217400    0.125082084900   -0.000079971100
C    0.624934719400    0.124889173100    0.249932314700
C    0.624873238900    0.125118568700    0.499930884600
C    0.624930150800    0.125223504400    0.749862974400
C    0.624952606000    0.375052230100   -0.000058126700
C    0.624804228400    0.374879288900    0.249958298100
C    0.623513477700    0.376034601800    0.499219889700
C    0.624793354800    0.375867984700    0.749156460100
C    0.625022628200    0.625022615200    0.000132430600
C    0.624578168600    0.624578167600    0.250524382700
C    0.624949219000    0.624949195000    0.503125324600
C    0.625519838500    0.625519816500    0.750671535400
C    0.625040861700    0.875062070500    0.000174176700
C    0.624937725200    0.874705199600    0.250336553000
C    0.625051002200    0.874991182400    0.500157816800
C    0.625216774600    0.875349201500    0.750268560500
C    0.874960367600    0.125055522400   -0.000017663600
C    0.874915487300    0.124979618700    0.250003739300
C    0.874975845000    0.125017400200    0.499966605000
C    0.874927049900    0.125210367600    0.749947977700
C    0.874946467400    0.375033191500   -0.000028212400
C    0.874897110800    0.374981447600    0.249998541200
C    0.874734342700    0.375177309200    0.500000303200
C    0.874896036900    0.375163232800    0.749905700300
C    0.875062065500    0.625040844700    0.000174179700
C    0.874705185600    0.624937706200    0.250336561000
C    0.874991164400    0.625050989200    0.500157824800
C    0.875349194500    0.625216757600    0.750268556500
C    0.875041531700    0.875041529700    0.000132922200
C    0.874911885200    0.874911895200    0.250121105300
C    0.875185127100    0.875185140100    0.500127024800
C    0.875195175900    0.875195178900    0.750131826200
C    0.187461846700    0.062433160300    0.187461850700
C    0.187438444100    0.062359388900    0.437454126800
C    0.187529346000    0.062430663000    0.687452008100
C    0.187518836100    0.062477172600    0.937444728800
C    0.187418598800    0.312431986900    0.187418599800
C    0.187347084500    0.312346105600    0.437368515500
C    0.187445333500    0.312492022300    0.687380841000
C    0.187479196600    0.312486149400    0.937406456400
C    0.187178806600    0.562371511700    0.187178805600
C    0.187568124500    0.562324756000    0.437434968300
C    0.187730676600    0.562405793200    0.687322667200
C    0.187646520800    0.562460977100    0.937331254500
C    0.187508389300    0.812406601000    0.187508390300
C    0.187450291200    0.812504656100    0.437523320900
C    0.187784344700    0.812316524900    0.687400451600
C    0.187612605000    0.812447526000    0.937441728800
C    0.437454128800    0.062359379900    0.187438446100
C    0.437457359500    0.062424926200    0.437457352500
C    0.437519950400    0.062535596800    0.687431437300
C    0.437517040800    0.062472727900    0.937466973100
C    0.437368525500    0.312346104600    0.187347076500
C    0.437357347000    0.312647269100    0.437357328000
C    0.437649758800    0.312267667500    0.687598928800
C    0.437503800000    0.312555898900    0.937316680300
C    0.437434979300    0.562324756000    0.187568115500
C    0.438787902400    0.561941969200    0.686181324700
C    0.437576087700    0.562510503400    0.937410626300
C    0.437523326900    0.812504650100    0.187450295200
C    0.437601653300    0.812179221800    0.437601649300
C    0.437815146800    0.812366056300    0.687509275400
C    0.437592910000    0.812484738300    0.937510663900
C    0.687452019100    0.062430655000    0.187529351000
C    0.687431448300    0.062535593800    0.437519944400
C    0.687492940400    0.062691678200    0.687492929400
C    0.687494335500    0.062644752500    0.937497054800
C    0.687380848000    0.312492022300    0.187445333500
C    0.687598927800    0.312267671500    0.437649745800
C    0.687119412000    0.313039100400    0.687119411000
C    0.687444409500    0.312630841400    0.937385545500
C    0.687322665200    0.562405800200    0.187730670600
C    0.686181315700    0.561941969200    0.438787892400
C    0.688596242000    0.562989345900    0.688596248000
C    0.687573293000    0.562603486000    0.937619649300
C    0.687400458600    0.812316521900    0.187784345700
C    0.687509272400    0.812366059300    0.437815129800
C    0.687862355400    0.813000879300    0.687862355400
C    0.687629122300    0.812666730300    0.937773168600
C    0.937444724800    0.062477173600    0.187518850100
C    0.937466968100    0.062472731900    0.437517039800
C    0.937497044800    0.062644754500    0.687494325500
C    0.937506667700    0.062568479800    0.937506673700
C    0.937406450400    0.312486157400    0.187479204600
C    0.937316672300    0.312555896900    0.437503803000
C    0.937385535500    0.312630836400    0.687444408500
C    0.937440351800    0.312557498800    0.937440364800
C    0.937331246500    0.562460982100    0.187646523800
C    0.937410616300    0.562510507400    0.437576074700
C    0.937619638300    0.562603486000    0.687573292000
C    0.937620004500    0.562543197500    0.937620018500
C    0.937441718800    0.812447530000    0.187612606000
C    0.937510650900    0.812484745300    0.437592897000
C    0.937773157600    0.812666731300    0.687629112300
C    0.937622945700    0.812564175900    0.937622953700
C    0.062483376500    0.062483382500    0.062483383500
C    0.062444022200    0.062444038200    0.312486827800
C    0.062428015000    0.062428028000    0.562462459100
C    0.062535322000    0.062535332000    0.812470530000
C    0.062444026200    0.312486812800    0.062444034200
C    0.062342946700    0.312438429700    0.312438449700
C    0.062418071200    0.312502321500    0.562436476300
C    0.062460730600    0.312533271400    0.812432595800
C    0.062428010000    0.562462457100    0.062428022000
C    0.062418062200    0.562436476300    0.312502328500
C    0.062570203800    0.562474320200    0.562474334200
C    0.062629338300    0.562512065900    0.812465522300
C    0.062535318000    0.812470551000    0.062535328000
C    0.062460720600    0.812432616800    0.312533272400
C    0.062629332300    0.812465523300    0.562512073900
C    0.062712770700    0.812504485300    0.812504489300
C    0.312486816800    0.062444028200    0.062444028200
C    0.312438437700    0.062342959700    0.312438434700
C    0.312502333500    0.062418099200    0.562436474300
C    0.312533283400    0.062460743600    0.812432598800
C    0.312438443700    0.312438425700    0.062342950700
C    0.312434480500    0.312434465500    0.312434469500
C    0.311740536400    0.311740538400    0.562027706600
C    0.312530014500    0.312529999500    0.812375836900
C    0.312502331500    0.562436470300    0.062418069200
C    0.311740531400    0.562027704600    0.311740518400
C    0.313141743900    0.562033197400    0.562033211400
C    0.312940801900    0.562390693700    0.812024012400
C    0.312533277400    0.812432609800    0.062460730600
C    0.312530001500    0.812375857900    0.312530000500
C    0.312940801900    0.812024014400    0.562390712700
C    0.312687493900    0.812373431500    0.812373437500
C    0.562462467100    0.062428023000    0.062428024000
C    0.562436489300    0.062418094200    0.312502332500
C    0.562474347200    0.062570236800    0.562474333200
C    0.562512085900    0.062629355300    0.812465523300
C    0.562436483300    0.312502322500    0.062418072200
C    0.562027716600    0.311740537400    0.311740526400
C    0.562033199400    0.313141750900    0.562033189400
C    0.562390710700    0.312940794900    0.812024007400
C    0.562474343200    0.562474322200    0.062570208800
C    0.562033215400    0.562033197400    0.313141724900
C    0.562686630900    0.562686609900    0.812524282300
C    0.562512086900    0.812465516300    0.062629345300
C    0.562390718700    0.812024011400    0.312940795900
C    0.562686634900    0.812524283300    0.562686628900
C    0.562707515700    0.812913549200    0.812913558200
C    0.812470537000    0.062535328000    0.062535338000
C    0.812432602800    0.062460738600    0.312533290400
C    0.812465519300    0.062629354300    0.562512075900
C    0.812504486300    0.062712774700    0.812504488300
C    0.812432598800    0.312533274400    0.062460744600
C    0.812375837900    0.312530003500    0.312530015500
C    0.812024001400    0.312940792900    0.562390707700
C    0.812373428500    0.312687477900    0.812373435500
C    0.812465517300    0.562512069900    0.062629348300
C    0.812024007400    0.562390698700    0.312940793900
C    0.812524268300    0.562686612900    0.562686619900
C    0.812913544200    0.562707489700    0.812913555200
C    0.812504489300    0.812504484300    0.062712778700
C    0.812373430500    0.812373437500    0.312687486900
C    0.812913548200    0.812913552200    0.562707499700
C    0.812741280700    0.812741275700    0.812741284700
C    0.062433154300    0.187461853700    0.187461858700
C    0.062359366900    0.187438447100    0.437454131800
C    0.062430650000    0.187529342000    0.687452004100
C    0.062477168600    0.187518834100    0.937444731800
C    0.062359366900    0.437454118800    0.187438455100
C    0.062424894200    0.437457342500    0.437457353500
C    0.062535571800    0.437519923400    0.687431441300
C    0.062472718900    0.437517023800    0.937466979100
C    0.062430639000    0.687452022100    0.187529339000
C    0.062535562800    0.687431445300    0.437519936400
C    0.062691655200    0.687492919400    0.687492933400
C    0.062644744500    0.687494325500    0.937497052800
C    0.062477158600    0.937444744800    0.187518840100
C    0.062472712900    0.937466987100    0.437517030800
C    0.062644745500    0.937497053800    0.687494323500
C    0.062568473800    0.937506674700    0.937506668700
C    0.312431999900    0.187418593800    0.187418597800
C    0.312346110600    0.187347095500    0.437368511500
C    0.312492037300    0.187445342500    0.687380834000
C    0.312486161400    0.187479193600    0.937406453400
C    0.312346119600    0.437368507500    0.187347074500
C    0.312647261100    0.437357333000    0.437357336000
C    0.312267665500    0.437649751800    0.687598934800
C    0.312555910900    0.437503782000    0.937316677300
C    0.312492022300    0.687380850000    0.187445315500
C    0.312267660500    0.687598942800    0.437649761800
C    0.313039110400    0.687119402000    0.687119418000
C    0.312630851400    0.687444406500    0.937385542500
C    0.312486155400    0.937406468400    0.187479188600
C    0.312555901900    0.937316704300    0.437503798000
C    0.312630854400    0.937385556500    0.687444410500
C    0.312557509800    0.937440363800    0.937440356800
C    0.562371526700    0.187178816600    0.187178810600
C    0.562324763000    0.187568155500    0.437434970300
C    0.562405815200    0.187730691600    0.687322660200
C    0.562460992100    0.187646521800    0.937331255500
C    0.562324770000    0.437434959300    0.187568123500
C    0.561941969200    0.438787895400    0.686181318700
C    0.562510516400    0.437576062700    0.937410625300
C    0.562405817200    0.687322659200    0.187730669600
C    0.561941985200    0.686181323700    0.438787900400
C    0.562989363900    0.688596241000    0.688596253000
C    0.562603507000    0.687573285000    0.937619648300
C    0.562461000100    0.937331261500    0.187646521800
C    0.562510528400    0.937410648300    0.437576077700
C    0.562603511000    0.937619659300    0.687573297000
C    0.562543213500    0.937620015500    0.937620016500
C    0.812406583000    0.187508402300    0.187508412300
C    0.812504639100    0.187450305200    0.437523322900
C    0.812316521900    0.187784348700    0.687400450600
C    0.812447517000    0.187612603000    0.937441733800
C    0.812504638100    0.437523311900    0.187450302200
C    0.812179197800    0.437601635300    0.437601643300
C    0.812366044300    0.437815119800    0.687509266400
C    0.812484736300    0.437592893000    0.937510672900
C    0.812316524900    0.687400446600    0.187784346700
C    0.812366051300    0.687509263400    0.437815126800
C    0.813000875300    0.687862342400    0.687862348400
C    0.812666733300    0.687629108300    0.937773166600
C    0.812447519000    0.937441730800    0.187612613000
C    0.812484735300    0.937510674900    0.437592908000
C    0.812666735300    0.937773167600    0.687629116300
C    0.812564178900    0.937622947700    0.937622955700
C    0.187461852700    0.187461848700    0.062433159300
C    0.187418592800    0.187418594800    0.312432003900
C    0.187178811600    0.187178821600    0.562371513700