&CONTROL
calculation = 'relax'
restart_mode = 'from_scratch'
prefix = 'pwscf'
pseudo_dir = './'
outdir = './'
wf_collect = .TRUE.
tprnfor = .TRUE.
verbosity = 'high'
forc_conv_thr = 0.00039
/
&SYSTEM
ibrav = 0
nat = 511
ntyp = 2
ecutwfc = 90
tot_charge = -1
nspin = 2
tot_magnetization = 2
nbnd = 1032
/
&ELECTRONS
electron_maxstep = 600
conv_thr = 1.0d-9
mixing_mode = 'plain'
mixing_beta = 0.7
diagonalization = 'david'
diago_full_acc = .TRUE.
startingpot = 'atomic'
startingwfc = 'atomic+random'
/
&IONS
ion_dynamics='bfgs'
ion_positions='default'
/
ATOMIC_SPECIES
C  12.0107 C_ONCV_PBE-1.0.upf
N  14.0000 N_ONCV_PBE-1.0.upf
CELL_PARAMETERS angstrom
14.272 0.0 0.0
0.0 14.272 0.0
0.0 0.0 14.272
K_POINTS gamma
ATOMIC_POSITIONS crystal
C        0.000006979   0.000006981   0.000006990
C       -0.000037781  -0.000037763   0.250012823
C       -0.000003879  -0.000003865   0.500007098
C        0.000051381   0.000051395   0.749998044
C       -0.000037780   0.250012808  -0.000037770
C       -0.000074203   0.249972328   0.249972337
C       -0.000103027   0.250035982   0.499978576
C       -0.000061763   0.250048620   0.749960025
C       -0.000003879   0.500007082  -0.000003869
C       -0.000103036   0.499978564   0.250035988
C       -0.000026958   0.500002093   0.500002098
C        0.000058692   0.500027953   0.749982056
C        0.000051385   0.749998046   0.000051398
C       -0.000061769   0.749960037   0.250048627
C        0.000058680   0.749982060   0.500027965
C        0.000170168   0.750045484   0.750045488
C        0.250012814  -0.000037767  -0.000037777
C        0.249972332  -0.000074190   0.249972334
C        0.250035985  -0.000103000   0.499978583
C        0.250048622  -0.000061747   0.749960038
C        0.249972331   0.249972324  -0.000074197
C        0.249982147   0.249982138   0.249982148
C        0.249543571   0.249543570   0.499985333
C        0.250011263   0.250011255   0.749903647
C        0.250035988   0.499978560  -0.000103025
C        0.249543559   0.499985325   0.249543552
C        0.250312165   0.499817109   0.499817097
C        0.249963106   0.499879208   0.749994011
C        0.250048624   0.749960034  -0.000061761
C        0.250011255   0.749903655   0.250011248
C        0.249963095   0.749994014   0.499879220
C        0.250314786   0.749800354   0.749800355
C        0.500007102  -0.000003868  -0.000003872
C        0.499978594  -0.000103002   0.250035985
C        0.500002110  -0.000026925   0.500002093
C        0.500027971   0.000058710   0.749982055
C        0.499978581   0.250035984  -0.000103018
C        0.499985339   0.249543567   0.249543561
C        0.499817115   0.250312177   0.499817107
C        0.499879231   0.249963105   0.749994004
C        0.500002105   0.500002091  -0.000026952
C        0.499817105   0.499817111   0.250312151
C        0.500126049   0.500126014   0.749557670
C        0.500027978   0.749982054   0.000058694
C        0.499879231   0.749994016   0.249963092
C        0.500126044   0.749557671   0.500126029
C        0.500326008   0.750473816   0.750473831
C        0.749998049   0.000051390   0.000051398
C        0.749960040  -0.000061753   0.250048628
C        0.749982058   0.000058711   0.500027968
C        0.750045480   0.000170176   0.750045485
C        0.749960030   0.250048621  -0.000061756
C        0.749903651   0.250011254   0.250011261
C        0.749994001   0.249963107   0.499879220
C        0.749800350   0.250314789   0.749800350
C        0.749982052   0.500027957   0.000058701
C        0.749994001   0.499879218   0.249963100
C        0.749557656   0.500126021   0.500126038
C        0.750473814   0.500325980   0.750473823
C        0.750045485   0.750045482   0.000170185
C        0.749800357   0.749800356   0.250314790
C        0.750473818   0.750473819   0.500325995
C        0.750247905   0.750247898   0.750247913
C       -0.000034876   0.124988205   0.124988215
C       -0.000062459   0.124969726   0.374983454
C       -0.000067409   0.125061629   0.624989877
C       -0.000012878   0.125038975   0.874972843
C       -0.000062458   0.374983436   0.124969725
C       -0.000109346   0.375003321   0.375003333
C       -0.000042922   0.375038765   0.624964394
C       -0.000025678   0.375022623   0.874959495
C       -0.000067415   0.624989879   0.125061627
C       -0.000042934   0.624964399   0.375038772
C        0.000095277   0.625011180   0.625011187
C        0.000124204   0.625028310   0.875043289
C       -0.000012879   0.874972850   0.125038983
C       -0.000025686   0.874959501   0.375022639
C        0.000124199   0.875043291   0.625028314
C        0.000088649   0.875025773   0.875025781
C        0.249977300   0.124962937   0.124962941
C        0.249964703   0.124900656   0.374958566
C        0.249944654   0.124911760   0.624958795
C        0.250004383   0.124986322   0.874938925
C        0.249964696   0.374958544   0.124900645
C        0.250051971   0.375026863   0.375026864
C        0.249973998   0.374907579   0.624850019
C        0.249993637   0.374986525   0.874930620
C        0.249944651   0.624958786   0.124911734
C        0.249973986   0.624850022   0.374907577
C        0.250451574   0.624638601   0.624638604
C        0.250268004   0.624960800   0.874758357
C        0.250004385   0.874938932   0.124986313
C        0.249993628   0.874930631   0.374986542
C        0.250267995   0.874758367   0.624960815
C        0.250084707   0.874932942   0.874932934
C        0.499996840   0.124834060   0.124834055
C        0.499944885   0.124986343   0.374967684
C        0.499948320   0.125105044   0.624901371
C        0.499972472   0.124997765   0.874996097
C        0.499944875   0.374967679   0.124986320
C        0.500257919   0.375081818   0.375081809
C        0.499237360   0.376009025   0.623556725
C        0.499998240   0.375139976   0.874783748
C        0.499948325   0.624901374   0.125105012
C        0.499237345   0.623556733   0.376009017
C        0.503067479   0.624926454   0.624926483
C        0.500110990   0.625026094   0.874981926
C        0.499972484   0.874996104   0.124997753
C        0.499998247   0.874783764   0.375139979
C        0.500110987   0.874981932   0.625026104
C        0.500091867   0.875151811   0.875151813
C        0.749959362   0.125001694   0.125001697
C        0.749963282   0.124982015   0.374990910
C        0.749891671   0.125162944   0.624946836
C        0.749964023   0.125150035   0.874941244
C        0.749963272   0.374990903   0.124982008
C        0.749816060   0.375022715   0.375022716
C        0.749201402   0.375783338   0.624805431
C        0.749914290   0.375112938   0.874908467
C        0.749891671   0.624946843   0.125162937
C        0.749201404   0.624805426   0.375783341
C        0.750599878   0.625438705   0.625438721
C        0.750199147   0.625148492   0.875262579
C        0.749964031   0.874941246   0.125150037
C        0.749914293   0.874908471   0.375112946
C        0.750199146   0.875262572   0.625148504
C        0.750082615   0.875128132   0.875128144
C        0.124988201  -0.000034868   0.124988210
C        0.124969716  -0.000062439   0.374983457
C        0.125061618  -0.000067391   0.624989885
C        0.125038971  -0.000012867   0.874972842
C        0.124962936   0.249977295   0.124962944
C        0.124900648   0.249964691   0.374958562
C        0.124911748   0.249944657   0.624958791
C        0.124986317   0.250004381   0.874938926
C        0.124834044   0.499996817   0.124834050
C        0.124986315   0.499944861   0.374967672
C        0.125105023   0.499948306   0.624901370
C        0.124997757   0.499972450   0.874996099
C        0.125001681   0.749959364   0.125001685
C        0.124981992   0.749963285   0.374990910
C        0.125162919   0.749891678   0.624946847
C        0.125150031   0.749964023   0.874941246
C        0.374983456  -0.000062447   0.124969719
C        0.375003341  -0.000109318   0.375003333
C        0.375038775  -0.000042895   0.624964399
C        0.375022641  -0.000025668   0.874959493
C        0.374958561   0.249964690   0.124900652
C        0.375026883   0.250051977   0.375026872
C        0.374907597   0.249973997   0.624850019
C        0.374986543   0.249993628   0.874930621
C        0.374967682   0.499944863   0.124986314
C        0.375081829   0.500257937   0.375081811
C        0.376009048   0.499237325   0.623556718
C        0.375139999   0.499998218   0.874783751
C        0.374990920   0.749963282   0.124981993
C        0.375022723   0.749816080   0.375022708
C        0.375783348   0.749201411   0.624805443
C        0.375112954   0.749914287   0.874908464
C        0.624989896  -0.000067399   0.125061627
C        0.624964410  -0.000042898   0.375038769
C        0.625011196   0.000095300   0.625011187
C        0.625028320   0.000124212   0.875043289
C        0.624958799   0.249944654   0.124911746
C        0.624850024   0.249973999   0.374907585
C        0.624638603   0.250451594   0.624638599
C        0.624960811   0.250268000   0.874758353
C        0.624901377   0.499948311   0.125105023
C        0.623556716   0.499237336   0.376009030
C        0.624926478   0.503067442   0.624926478
C        0.625026108   0.500110963   0.874981926
C        0.624946856   0.749891676   0.125162929
C        0.624805445   0.749201411   0.375783336
C        0.625438728   0.750599873   0.625438722
C        0.625148513   0.750199142   0.875262580
C        0.874972841  -0.000012871   0.125038987
C        0.874959490  -0.000025666   0.375022642
C        0.875043280   0.000124219   0.625028314
C        0.875025771   0.000088649   0.875025782
C        0.874938928   0.250004380   0.124986325
C        0.874930613   0.249993630   0.374986540
C        0.874758350   0.250268000   0.624960801
C        0.874932929   0.250084699   0.874932933
C        0.874996090   0.499972455   0.124997761
C        0.874783737   0.499998221   0.375139987
C        0.874981916   0.500110966   0.625026105
C        0.875151805   0.500091846   0.875151811
C        0.874941239   0.749964023   0.125150042
C        0.874908457   0.749914293   0.375112948
C        0.875262563   0.750199144   0.625148501
C        0.875128133   0.750082613   0.875128145
C        0.124988205   0.124988204  -0.000034873
C        0.124962933   0.124962940   0.249977308
C        0.124834051   0.124834064   0.499996839
C        0.125001687   0.125001698   0.749959354
C        0.124969720   0.374983432  -0.000062450
C        0.124900642   0.374958544   0.249964696
C        0.124986322   0.374967676   0.499944867
C        0.124982008   0.374990903   0.749963276
C        0.125061619   0.624989875  -0.000067405
C        0.124911731   0.624958791   0.249944652
C        0.125105012   0.624901373   0.499948315
C        0.125162929   0.624946838   0.749891674
C        0.125038974   0.874972851  -0.000012870
C        0.124986311   0.874938935   0.250004386
C        0.124997746   0.874996111   0.499972471
C        0.125150024   0.874941250   0.749964025
C        0.374983447   0.124969721  -0.000062452
C        0.374958570   0.124900653   0.249964701
C        0.374967691   0.124986344   0.499944871
C        0.374990916   0.124982017   0.749963276
C        0.375003335   0.375003322  -0.000109335
C        0.375026872   0.375026863   0.250051963
C        0.375081829   0.375081819   0.500257914
C        0.375022732   0.375022708   0.749816067
C        0.375038780   0.624964389  -0.000042926
C        0.374907592   0.624850023   0.249973971
C        0.376009044   0.623556724   0.499237326
C        0.375783352   0.624805425   0.749201415
C        0.375022644   0.874959499  -0.000025676
C        0.374986552   0.874930631   0.249993628
C        0.375139989   0.874783765   0.499998234
C        0.375112950   0.874908471   0.749914292
C        0.624989887   0.125061626  -0.000067402
C        0.624958808   0.124911756   0.249944659
C        0.624901380   0.125105043   0.499948314
C        0.624946846   0.125162943   0.749891668
C        0.624964398   0.375038768  -0.000042918
C        0.624850019   0.374907583   0.249973986
C        0.623556721   0.376009033   0.499237346
C        0.624805440   0.375783333   0.749201409
C        0.625011196   0.625011183   0.000095290
C        0.624638608   0.624638607   0.250451570
C        0.624926475   0.624926451   0.503067468
C        0.625438725   0.625438703   0.750599890
C        0.625028327   0.875043284   0.000124214
C        0.624960823   0.874758361   0.250267996
C        0.625026111   0.874981930   0.500110971
C        0.625148509   0.875262571   0.750199153
C        0.874972841   0.125038974  -0.000012864
C        0.874938928   0.124986324   0.250004394
C        0.874996095   0.124997764   0.499972467
C        0.874941235   0.125150037   0.749964019
C        0.874959490   0.375022626  -0.000025667
C        0.874930609   0.374986530   0.249993634
C        0.874783739   0.375139978   0.499998233
C        0.874908461   0.375112937   0.749914290
C        0.875043279   0.625028310   0.000124217
C        0.874758347   0.624960804   0.250268004
C        0.874981912   0.625026098   0.500110979
C        0.875262564   0.625148492   0.750199149
C        0.875025775   0.875025773   0.000088663
C        0.874932930   0.874932940   0.250084713
C        0.875151803   0.875151816   0.500091858
C        0.875128131   0.875128134   0.750082621
C        0.187474192   0.062457035   0.187474196
C        0.187451863   0.062396312   0.437468487
C        0.187520401   0.062444980   0.687466055
C        0.187513923   0.062486151   0.937459798
C        0.187448330   0.312457273   0.187448331
C        0.187390860   0.312384262   0.437404989
C        0.187455194   0.312505955   0.687411715
C        0.187483810   0.312493054   0.937434721
C        0.187223914   0.562402144   0.187223913
C        0.187575267   0.562365471   0.437462420
C        0.187682472   0.562435077   0.687367081
C        0.187613951   0.562472559   0.937365752
C        0.187509277   0.812430960   0.187509278
C        0.187435772   0.812535061   0.437529427
C        0.187708005   0.812357325   0.687425886
C        0.187577182   0.812464813   0.937454253
C        0.437468489   0.062396303   0.187451865
C        0.437468888   0.062454913   0.437468881
C        0.437517336   0.062532473   0.687446031
C        0.437515694   0.062472080   0.937480545
C        0.437404999   0.312384261   0.187390852
C        0.437401791   0.312674026   0.437401772
C        0.437664063   0.312269003   0.687640551
C        0.437505377   0.312544687   0.937359762
C        0.437462431   0.562365471   0.187575258
C        0.438734703   0.561938800   0.686212698
C        0.437551519   0.562506427   0.937427111
C        0.437529433   0.812535055   0.187435776
C        0.437575437   0.812234893   0.437575433
C        0.437740303   0.812374216   0.687495650
C        0.437564359   0.812484824   0.937501501
C        0.687466066   0.062444972   0.187520406
C        0.687446042   0.062532470   0.437517330
C        0.687493678   0.062633588   0.687493667
C        0.687495673   0.062605156   0.937491533
C        0.687411722   0.312505955   0.187455194
C        0.687640550   0.312269007   0.437664050
C        0.687171598   0.312948535   0.687171597
C        0.687458856   0.312595038   0.937409984
C        0.687367079   0.562435084   0.187682466
C        0.686212689   0.561938800   0.438734693
C        0.688539543   0.562918331   0.688539549
C        0.687546058   0.562568226   0.937582654
C        0.687425893   0.812357322   0.187708006
C        0.687495647   0.812374219   0.437740286
C        0.687771659   0.812905884   0.687771659
C        0.687580535   0.812616156   0.937689978
C        0.937459794   0.062486152   0.187513937
C        0.937480540   0.062472084   0.437515693
C        0.937491523   0.062605158   0.687495663
C        0.937503061   0.062547199   0.937503067
C        0.937434715   0.312493062   0.187483818
C        0.937359754   0.312544685   0.437505380
C        0.937409974   0.312595033   0.687458855
C        0.937453264   0.312542385   0.937453277
C        0.937365744   0.562472564   0.187613954
C        0.937427101   0.562506431   0.437551506
C        0.937582643   0.562568226   0.687546057
C        0.937592020   0.562527518   0.937592034
C        0.937454243   0.812464817   0.187577183
C        0.937501488   0.812484831   0.437564346
C        0.937689967   0.812616157   0.687580525
C        0.937579001   0.812540426   0.937579009
C        0.062490447   0.062490453   0.062490454
C        0.062463004   0.062463020   0.312493775
C        0.062436790   0.062436803   0.562472784
C        0.062526045   0.062526055   0.812480568
C        0.062463008   0.312493760   0.062463016
C        0.062387760   0.312457490   0.312457510
C        0.062445212   0.312506620   0.562454438
C        0.062468663   0.312527783   0.812453727
C        0.062436785   0.562472782   0.062436797
C        0.062445203   0.562454438   0.312506627
C        0.062561072   0.562482762   0.562482776
C        0.062592369   0.562510795   0.812475906
C        0.062526041   0.812480589   0.062526051
C        0.062468653   0.812453748   0.312527784
C        0.062592363   0.812475907   0.562510803
C        0.062645956   0.812501025   0.812501029
C        0.312493764   0.062463010   0.062463010
C        0.312457498   0.062387773   0.312457495
C        0.312506632   0.062445240   0.562454436
C        0.312527795   0.062468676   0.812453730
C        0.312457504   0.312457486   0.062387764
C        0.312475368   0.312475353   0.312475357
C        0.311790289   0.311790291   0.562083791
C        0.312530194   0.312530179   0.812413370
C        0.312506630   0.562454432   0.062445210
C        0.311790284   0.562083789   0.311790271
C        0.313099532   0.562092874   0.562092888
C        0.312870344   0.562406804   0.812091160
C        0.312527789   0.812453741   0.062468663
C        0.312530181   0.812413391   0.312530180
C        0.312870344   0.812091162   0.562406823
C        0.312631948   0.812399219   0.812399225
C        0.562472792   0.062436798   0.062436799
C        0.562454451   0.062445235   0.312506631
C        0.562482789   0.062561105   0.562482775
C        0.562510815   0.062592386   0.812475907
C        0.562454445   0.312506621   0.062445213
C        0.562083801   0.311790290   0.311790279
C        0.562092876   0.313099539   0.562092866
C        0.562406821   0.312870337   0.812091155
C        0.562482785   0.562482764   0.062561077
C        0.562092892   0.562092874   0.313099513
C        0.562635775   0.562635754   0.812511628
C        0.562510816   0.812475900   0.062592376
C        0.562406829   0.812091159   0.312870338
C        0.562635779   0.812511629   0.562635773
C        0.562633651   0.812842755   0.812842764
C        0.812480575   0.062526051   0.062526061
C        0.812453734   0.062468671   0.312527802
C        0.812475903   0.062592385   0.562510805
C        0.812501026   0.062645960   0.812501028
C        0.812453730   0.312527786   0.062468677
C        0.812413371   0.312530183   0.312530195
C        0.812091149   0.312870335   0.562406818
C        0.812399216   0.312631932   0.812399223
C        0.812475901   0.562510799   0.062592379
C        0.812091155   0.562406809   0.312870336
C        0.812511614   0.562635757   0.562635764
C        0.812842750   0.562633625   0.812842761
C        0.812501029   0.812501024   0.062645964
C        0.812399218   0.812399225   0.312631941
C        0.812842754   0.812842758   0.562633635
C        0.812661078   0.812661073   0.812661082
C        0.062457029   0.187474199   0.187474204
C        0.062396290   0.187451866   0.437468492
C        0.062444967   0.187520397   0.687466051
C        0.062486147   0.187513921   0.937459801
C        0.062396290   0.437468479   0.187451874
C        0.062454881   0.437468871   0.437468882
C        0.062532448   0.437517309   0.687446035
C        0.062472071   0.437515677   0.937480551
C        0.062444956   0.687466069   0.187520394
C        0.062532439   0.687446039   0.437517322
C        0.062633565   0.687493657   0.687493671
C        0.062605148   0.687495663   0.937491531
C        0.062486137   0.937459814   0.187513927
C        0.062472065   0.937480559   0.437515684
C        0.062605149   0.937491532   0.687495661
C        0.062547193   0.937503068   0.937503062
C        0.312457286   0.187448325   0.187448329
C        0.312384267   0.187390871   0.437404985
C        0.312505970   0.187455203   0.687411708
C        0.312493066   0.187483807   0.937434718
C        0.312384276   0.437404981   0.187390850
C        0.312674018   0.437401777   0.437401780
C        0.312269001   0.437664056   0.687640557
C        0.312544699   0.437505359   0.937359759
C        0.312505955   0.687411724   0.187455176
C        0.312268996   0.687640565   0.437664066
C        0.312948545   0.687171588   0.687171604
C        0.312595048   0.687458853   0.937409981
C        0.312493060   0.937434733   0.187483802
C        0.312544690   0.937359786   0.437505375
C        0.312595051   0.937409995   0.687458857
C        0.312542396   0.937453276   0.937453269
C        0.562402159   0.187223924   0.187223918
C        0.562365478   0.187575298   0.437462422
C        0.562435099   0.187682487   0.687367074
C        0.562472574   0.187613952   0.937365753
C        0.562365485   0.437462411   0.187575266
C        0.561938800   0.438734696   0.686212692
C        0.562506440   0.437551494   0.937427110
C        0.562435101   0.687367073   0.187682465
C        0.561938816   0.686212697   0.438734701
C        0.562918349   0.688539542   0.688539554
C        0.562568247   0.687546050   0.937582653
C        0.562472582   0.937365759   0.187613952
C        0.562506452   0.937427133   0.437551509
C        0.562568251   0.937582664   0.687546062
C        0.562527534   0.937592031   0.937592032
C        0.812430942   0.187509290   0.187509300
C        0.812535044   0.187435786   0.437529429
C        0.812357322   0.187708009   0.687425885
C        0.812464804   0.187577180   0.937454258
C        0.812535043   0.437529418   0.187435783
C        0.812234869   0.437575419   0.437575427
C        0.812374204   0.437740276   0.687495641
C        0.812484822   0.437564342   0.937501510
C        0.812357325   0.687425881   0.187708007
C        0.812374211   0.687495638   0.437740283
C        0.812905880   0.687771646   0.687771652
C        0.812616159   0.687580521   0.937689976
C        0.812464806   0.937454255   0.187577190
C        0.812484821   0.937501512   0.437564357
C        0.812616161   0.937689977   0.687580529
C        0.812540429   0.937579003   0.937579011
C        0.187474198   0.187474194   0.062457034
C        0.187448324   0.187448326   0.312457290
C        0.187223919   0.187223929   0.562402146
C        0.187509288   0.187509289   0.812430934
C        0.187451867   0.437468475   0.062396296
C        0.187390860   0.437404978   0.312384265
C        0.187575275   0.437462409   0.562365478
C        0.187435783   0.437529412   0.812535048
C        0.187520391   0.687466065   0.062444965
C        0.187455177   0.687411726   0.312505951
C        0.187682464   0.687367071   0.562435099
C        0.187708009   0.687425875   0.812357330
C        0.187513920   0.937459813   0.062486146
C        0.187483799   0.937434740   0.312493061
C        0.187613947   0.937365767   0.562472568
C        0.187577181   0.937454256   0.812464807
C        0.437468490   0.187451865   0.062396293
C        0.437404995   0.187390870   0.312384263
C        0.437462429   0.187575295   0.562365467
C        0.437529432   0.187435790   0.812535043
C        0.437468889   0.437468870   0.062454882
C        0.437401795   0.437401774   0.312674000
C        0.437575432   0.437575416   0.812234877
C        0.437517334   0.687446031   0.062532446
C        0.437664071   0.687640566   0.312268984
C        0.438734711   0.686212697   0.561938817
C        0.437740299   0.687495637   0.812374219
C        0.437515694   0.937480550   0.062472076
C        0.437505382   0.937359786   0.312544692
C        0.437551519   0.937427135   0.562506440
C        0.437564366   0.937501507   0.812484827
C        0.687466064   0.187520395   0.062444974
C        0.687411722   0.187455201   0.312505967
C        0.687367075   0.187682489   0.562435093
C        0.687425890   0.187708010   0.812357327
C        0.687446038   0.437517313   0.062532455
C        0.687640552   0.437664059   0.312268992
C        0.686212684   0.438734699   0.561938789
C        0.687495637   0.437740274   0.812374218
C        0.687493674   0.687493659   0.062633576
C        0.687171603   0.687171592   0.312948533
C        0.688539546   0.688539539   0.562918340
C        0.687771656   0.687771646   0.812905893
C        0.687495673   0.937491526   0.062605160
C        0.687458865   0.937409990   0.312595046
C        0.687546065   0.937582664   0.562568241
C        0.687580534   0.937689975   0.812616165
C        0.937459797   0.187513924   0.062486159
C        0.937434715   0.187483811   0.312493079
C        0.937365746   0.187613950   0.562472570
C        0.937454245   0.187577179   0.812464804
C        0.937480541   0.437515681   0.062472080
C        0.937359752   0.437505362   0.312544697
C        0.937427104   0.437551498   0.562506437
C        0.937501495   0.437564337   0.812484828
C        0.937491519   0.687495665   0.062605161
C        0.937409969   0.687458863   0.312595042
C        0.937582642   0.687546051   0.562568234
C        0.937689965   0.687580518   0.812616163
C        0.937503057   0.937503065   0.062547206
C        0.937453263   0.937453279   0.312542398
C        0.937592023   0.937592038   0.562527521
C        0.937579003   0.937579004   0.812540428
C        0.565035744   0.433028292   0.433028260
C        0.433028275   0.433028286   0.565035750
C        0.433028279   0.565035756   0.433028263
N        0.568577448   0.568577457   0.568577455
